%NProcShared=8
%mem=28GB
%Chk=job.chk
#p B3LYP/6-31G(d) Opt

 C7H6O2 | Equilibrium Geometry | B3LYP/6-31G(d)

0 1
C     -0.870391    2.006998    0.030320
C     -1.521463    0.775532    0.084300
C      0.607809   -0.351542    0.035341
H     -2.607385    0.736694    0.124458
C      0.526217    2.073749   -0.021743
C     -0.782684   -0.404692    0.086846
H     -1.461706    2.919600    0.029076
C      1.201422    3.417433   -0.079372
C      1.259711    0.879642   -0.018663
H      1.186750   -1.271927    0.037225
H     -1.290191   -1.365517    0.128946
H      2.346029    0.896153   -0.058282
O      0.601431    4.472800   -0.083837
H      2.790739    4.325550   -0.159215
O      2.506208    3.395052   -0.125914

