 Entering Gaussian System, Link 0=g16
 Initial command:
 /opt/software/gaussian/16RevA.03/g16/l1.exe "/home/class-qc/qc26/g16scratch/728/Gau-113228.inp" -scrdir="/home/class-qc/qc26/g16scratch/728/"
 Entering Link 1 = /opt/software/gaussian/16RevA.03/g16/l1.exe PID=    113230.
  
 Copyright (c) 1988,1990,1992,1993,1995,1998,2003,2009,2016,
            Gaussian, Inc.  All Rights Reserved.
  
 This is part of the Gaussian(R) 16 program.  It is based on
 the Gaussian(R) 09 system (copyright 2009, Gaussian, Inc.),
 the Gaussian(R) 03 system (copyright 2003, Gaussian, Inc.),
 the Gaussian(R) 98 system (copyright 1998, Gaussian, Inc.),
 the Gaussian(R) 94 system (copyright 1995, Gaussian, Inc.),
 the Gaussian 92(TM) system (copyright 1992, Gaussian, Inc.),
 the Gaussian 90(TM) system (copyright 1990, Gaussian, Inc.),
 the Gaussian 88(TM) system (copyright 1988, Gaussian, Inc.),
 the Gaussian 86(TM) system (copyright 1986, Carnegie Mellon
 University), and the Gaussian 82(TM) system (copyright 1983,
 Carnegie Mellon University). Gaussian is a federally registered
 trademark of Gaussian, Inc.
  
 This software contains proprietary and confidential information,
 including trade secrets, belonging to Gaussian, Inc.
  
 This software is provided under written license and may be
 used, copied, transmitted, or stored only in accord with that
 written license.
  
 The following legend is applicable only to US Government
 contracts under FAR:
  
                    RESTRICTED RIGHTS LEGEND
  
 Use, reproduction and disclosure by the US Government is
 subject to restrictions as set forth in subparagraphs (a)
 and (c) of the Commercial Computer Software - Restricted
 Rights clause in FAR 52.227-19.
  
 Gaussian, Inc.
 340 Quinnipiac St., Bldg. 40, Wallingford CT 06492
  
  
 ---------------------------------------------------------------
 Warning -- This program may not be used in any manner that
 competes with the business of Gaussian, Inc. or will provide
 assistance to any competitor of Gaussian, Inc.  The licensee
 of this program is prohibited from giving any competitor of
 Gaussian, Inc. access to this program.  By using this program,
 the user acknowledges that Gaussian, Inc. is engaged in the
 business of creating and licensing software in the field of
 computational chemistry and represents and warrants to the
 licensee that it is not a competitor of Gaussian, Inc. and that
 it will not use this program in any manner prohibited above.
 ---------------------------------------------------------------
  

 Cite this work as:
 Gaussian 16, Revision A.03,
 M. J. Frisch, G. W. Trucks, H. B. Schlegel, G. E. Scuseria, 
 M. A. Robb, J. R. Cheeseman, G. Scalmani, V. Barone, 
 G. A. Petersson, H. Nakatsuji, X. Li, M. Caricato, A. V. Marenich, 
 J. Bloino, B. G. Janesko, R. Gomperts, B. Mennucci, H. P. Hratchian, 
 J. V. Ortiz, A. F. Izmaylov, J. L. Sonnenberg, D. Williams-Young, 
 F. Ding, F. Lipparini, F. Egidi, J. Goings, B. Peng, A. Petrone, 
 T. Henderson, D. Ranasinghe, V. G. Zakrzewski, J. Gao, N. Rega, 
 G. Zheng, W. Liang, M. Hada, M. Ehara, K. Toyota, R. Fukuda, 
 J. Hasegawa, M. Ishida, T. Nakajima, Y. Honda, O. Kitao, H. Nakai, 
 T. Vreven, K. Throssell, J. A. Montgomery, Jr., J. E. Peralta, 
 F. Ogliaro, M. J. Bearpark, J. J. Heyd, E. N. Brothers, K. N. Kudin, 
 V. N. Staroverov, T. A. Keith, R. Kobayashi, J. Normand, 
 K. Raghavachari, A. P. Rendell, J. C. Burant, S. S. Iyengar, 
 J. Tomasi, M. Cossi, J. M. Millam, M. Klene, C. Adamo, R. Cammi, 
 J. W. Ochterski, R. L. Martin, K. Morokuma, O. Farkas, 
 J. B. Foresman, and D. J. Fox, Gaussian, Inc., Wallingford CT, 2016.
 
 ******************************************
 Gaussian 16:  ES64L-G16RevA.03 25-Dec-2016
                21-Sep-2026 
 ******************************************
 %NProcShared=5
 Will use up to    5 processors via shared memory.
 %mem=28GB
 %OldChk=../Base2/job.chk
 %Chk=job.chk
 Copying data from "../Base2/job.chk" to current chk file "job.chk"
 IOpt=  2 FromEx=T IUOpen= 4 IOptOp= 5 NList=   0 IFRang= 0 IUIn= 4 IUOut= 2.
 ----------------------------------------------------------------------
 #p B3LYP/6-31G(d) Freq=Raman Geom=AllCheck Guess=Read Int=UltraFine SC
 F=Tight
 ----------------------------------------------------------------------
 1/10=4,29=7,30=1,38=1/1,3;
 2/12=2,40=1/2;
 3/5=1,6=6,7=1,11=2,14=-4,25=1,30=1,71=2,74=-5,75=-5,116=-2,140=1/1,2,3;
 4/5=1/1;
 5/5=2,32=2,38=6,98=1/2;
 8/6=4,10=90,11=11/1;
 10/13=10,15=4/2;
 11/6=3,8=1,9=11,15=111,16=1/1,2,10;
 10/6=1/2;
 6/7=2,8=2,9=2,10=2,28=1/1;
 7/8=1,10=1,25=1/1,2,3,16;
 1/10=4,30=1/3;
 99//99;
 Leave Link    1 at Mon Sep 21 11:03:47 2026, MaxMem=  3758096384 cpu:               1.0 elap:               0.3
 (Enter /opt/software/gaussian/16RevA.03/g16/l101.exe)
 Structure from the checkpoint file:  "job.chk"
 ----------------------------------------------
 C7H6O2 | Equilibrium Geometry | B3LYP/6-31G(d)
 ----------------------------------------------
 Charge =  0 Multiplicity = 1
 Redundant internal coordinates found in file.  (old form).
 C,0,-0.8439835273,2.0102741812,-0.0091403623
 C,0,-1.5097253612,0.7879298582,0.0199965216
 C,0,0.6126749738,-0.3719301464,0.0759005757
 H,0,-2.5957911561,0.763566024,0.0152323484
 C,0,0.5570641919,2.0515696407,-0.017167459
 C,0,-0.7826617903,-0.4051493481,0.06030343
 H,0,-1.3887988036,2.948353396,-0.0276774185
 C,0,1.212497776,3.4003994007,-0.0479416469
 C,0,1.2809155572,0.8515955431,0.0354397129
 H,0,1.1810262494,-1.2962278982,0.127277574
 H,0,-1.3028074618,-1.3587072388,0.0875451528
 H,0,2.3676807327,0.8590200705,0.0883387716
 O,0,0.6568485734,4.4181758935,0.2908287715
 H,0,2.7512943122,2.5900560546,-0.8715598131
 O,0,2.5012747337,3.4454825689,-0.4866091586
 Recover connectivity data from disk.
 ITRead=  0  0  0  0  0  0  0  0  0  0  0  0  0  0  0
 MicOpt= -1 -1 -1 -1 -1 -1 -1 -1 -1 -1 -1 -1 -1 -1 -1
 NAtoms=     15 NQM=       15 NQMF=       0 NMMI=      0 NMMIF=      0
                NMic=       0 NMicF=      0.
                    Isotopes and Nuclear Properties:
 (Nuclear quadrupole moments (NQMom) in fm**2, nuclear magnetic moments (NMagM)
  in nuclear magnetons)

  Atom         1           2           3           4           5           6           7           8           9          10
 IAtWgt=          12          12          12           1          12          12           1          12          12           1
 AtmWgt=  12.0000000  12.0000000  12.0000000   1.0078250  12.0000000  12.0000000   1.0078250  12.0000000  12.0000000   1.0078250
 NucSpn=           0           0           0           1           0           0           1           0           0           1
 AtZEff=   3.6000000   3.6000000   3.6000000   1.0000000   3.6000000   3.6000000   1.0000000   3.6000000   3.6000000   1.0000000
 NQMom=    0.0000000   0.0000000   0.0000000   0.0000000   0.0000000   0.0000000   0.0000000   0.0000000   0.0000000   0.0000000
 NMagM=    0.0000000   0.0000000   0.0000000   2.7928460   0.0000000   0.0000000   2.7928460   0.0000000   0.0000000   2.7928460
 AtZNuc=   6.0000000   6.0000000   6.0000000   1.0000000   6.0000000   6.0000000   1.0000000   6.0000000   6.0000000   1.0000000

  Atom        11          12          13          14          15
 IAtWgt=           1           1          16           1          16
 AtmWgt=   1.0078250   1.0078250  15.9949146   1.0078250  15.9949146
 NucSpn=           1           1           0           1           0
 AtZEff=   1.0000000   1.0000000   5.6000000   1.0000000   5.6000000
 NQMom=    0.0000000   0.0000000   0.0000000   0.0000000   0.0000000
 NMagM=    2.7928460   2.7928460   0.0000000   2.7928460   0.0000000
 AtZNuc=   1.0000000   1.0000000   8.0000000   1.0000000   8.0000000
 Leave Link  101 at Mon Sep 21 11:03:47 2026, MaxMem=  3758096384 cpu:               1.7 elap:               0.4
 (Enter /opt/software/gaussian/16RevA.03/g16/l103.exe)

 GradGradGradGradGradGradGradGradGradGradGradGradGradGradGradGradGradGrad
 Berny optimization.
 Initialization pass.
                           ----------------------------
                           !    Initial Parameters    !
                           ! (Angstroms and Degrees)  !
 --------------------------                            --------------------------
 ! Name  Definition              Value          Derivative Info.                !
 --------------------------------------------------------------------------------
 ! R1    R(1,2)                  1.3922         calculate D2E/DX2 analytically  !
 ! R2    R(1,5)                  1.4017         calculate D2E/DX2 analytically  !
 ! R3    R(1,7)                  1.085          calculate D2E/DX2 analytically  !
 ! R4    R(2,4)                  1.0863         calculate D2E/DX2 analytically  !
 ! R5    R(2,6)                  1.3977         calculate D2E/DX2 analytically  !
 ! R6    R(3,6)                  1.3958         calculate D2E/DX2 analytically  !
 ! R7    R(3,9)                  1.3947         calculate D2E/DX2 analytically  !
 ! R8    R(3,10)                 1.0863         calculate D2E/DX2 analytically  !
 ! R9    R(5,8)                  1.5            calculate D2E/DX2 analytically  !
 ! R10   R(5,9)                  1.4024         calculate D2E/DX2 analytically  !
 ! R11   R(6,11)                 1.0865         calculate D2E/DX2 analytically  !
 ! R12   R(8,13)                 1.208          calculate D2E/DX2 analytically  !
 ! R13   R(8,15)                 1.3621         calculate D2E/DX2 analytically  !
 ! R14   R(9,12)                 1.0881         calculate D2E/DX2 analytically  !
 ! R15   R(14,15)                0.9708         calculate D2E/DX2 analytically  !
 ! A1    A(2,1,5)              120.263          calculate D2E/DX2 analytically  !
 ! A2    A(2,1,7)              121.2896         calculate D2E/DX2 analytically  !
 ! A3    A(5,1,7)              118.4473         calculate D2E/DX2 analytically  !
 ! A4    A(1,2,4)              119.8462         calculate D2E/DX2 analytically  !
 ! A5    A(1,2,6)              120.0861         calculate D2E/DX2 analytically  !
 ! A6    A(4,2,6)              120.0673         calculate D2E/DX2 analytically  !
 ! A7    A(6,3,9)              119.968          calculate D2E/DX2 analytically  !
 ! A8    A(6,3,10)             120.2192         calculate D2E/DX2 analytically  !
 ! A9    A(9,3,10)             119.8111         calculate D2E/DX2 analytically  !
 ! A10   A(1,5,8)              117.6055         calculate D2E/DX2 analytically  !
 ! A11   A(1,5,9)              119.3737         calculate D2E/DX2 analytically  !
 ! A12   A(8,5,9)              123.0029         calculate D2E/DX2 analytically  !
 ! A13   A(2,6,3)              119.9999         calculate D2E/DX2 analytically  !
 ! A14   A(2,6,11)             120.054          calculate D2E/DX2 analytically  !
 ! A15   A(3,6,11)             119.9444         calculate D2E/DX2 analytically  !
 ! A16   A(5,8,13)             123.4267         calculate D2E/DX2 analytically  !
 ! A17   A(5,8,15)             116.7312         calculate D2E/DX2 analytically  !
 ! A18   A(13,8,15)            119.8421         calculate D2E/DX2 analytically  !
 ! A19   A(3,9,5)              120.2937         calculate D2E/DX2 analytically  !
 ! A20   A(3,9,12)             118.8897         calculate D2E/DX2 analytically  !
 ! A21   A(5,9,12)             120.7653         calculate D2E/DX2 analytically  !
 ! A22   A(8,15,14)            110.0114         calculate D2E/DX2 analytically  !
 ! D1    D(5,1,2,4)           -179.3419         calculate D2E/DX2 analytically  !
 ! D2    D(5,1,2,6)              0.8953         calculate D2E/DX2 analytically  !
 ! D3    D(7,1,2,4)              0.5612         calculate D2E/DX2 analytically  !
 ! D4    D(7,1,2,6)           -179.2017         calculate D2E/DX2 analytically  !
 ! D5    D(2,1,5,8)           -179.9581         calculate D2E/DX2 analytically  !
 ! D6    D(2,1,5,9)             -1.4551         calculate D2E/DX2 analytically  !
 ! D7    D(7,1,5,8)              0.1362         calculate D2E/DX2 analytically  !
 ! D8    D(7,1,5,9)            178.6392         calculate D2E/DX2 analytically  !
 ! D9    D(1,2,6,3)              0.2141         calculate D2E/DX2 analytically  !
 ! D10   D(1,2,6,11)           179.7248         calculate D2E/DX2 analytically  !
 ! D11   D(4,2,6,3)           -179.5483         calculate D2E/DX2 analytically  !
 ! D12   D(4,2,6,11)            -0.0375         calculate D2E/DX2 analytically  !
 ! D13   D(9,3,6,2)             -0.7501         calculate D2E/DX2 analytically  !
 ! D14   D(9,3,6,11)           179.7386         calculate D2E/DX2 analytically  !
 ! D15   D(10,3,6,2)           178.7741         calculate D2E/DX2 analytically  !
 ! D16   D(10,3,6,11)           -0.7372         calculate D2E/DX2 analytically  !
 ! D17   D(6,3,9,5)              0.1794         calculate D2E/DX2 analytically  !
 ! D18   D(6,3,9,12)           177.5945         calculate D2E/DX2 analytically  !
 ! D19   D(10,3,9,5)          -179.3467         calculate D2E/DX2 analytically  !
 ! D20   D(10,3,9,12)           -1.9316         calculate D2E/DX2 analytically  !
 ! D21   D(1,5,8,13)            20.7087         calculate D2E/DX2 analytically  !
 ! D22   D(1,5,8,15)          -159.2485         calculate D2E/DX2 analytically  !
 ! D23   D(9,5,8,13)          -157.7357         calculate D2E/DX2 analytically  !
 ! D24   D(9,5,8,15)            22.3071         calculate D2E/DX2 analytically  !
 ! D25   D(1,5,9,3)              0.9178         calculate D2E/DX2 analytically  !
 ! D26   D(1,5,9,12)          -176.4483         calculate D2E/DX2 analytically  !
 ! D27   D(8,5,9,3)            179.3359         calculate D2E/DX2 analytically  !
 ! D28   D(8,5,9,12)             1.9698         calculate D2E/DX2 analytically  !
 ! D29   D(5,8,15,14)           10.3198         calculate D2E/DX2 analytically  !
 ! D30   D(13,8,15,14)        -169.639          calculate D2E/DX2 analytically  !
 --------------------------------------------------------------------------------
 Trust Radius=3.00D-01 FncErr=1.00D-07 GrdErr=1.00D-07 EigMax=2.50D+02 EigMin=1.00D-04
 Number of steps in this run=      2 maximum allowed number of steps=      2.
 GradGradGradGradGradGradGradGradGradGradGradGradGradGradGradGradGradGrad

 Leave Link  103 at Mon Sep 21 11:03:47 2026, MaxMem=  3758096384 cpu:               0.2 elap:               0.1
 (Enter /opt/software/gaussian/16RevA.03/g16/l202.exe)
                          Input orientation:                          
 ---------------------------------------------------------------------
 Center     Atomic      Atomic             Coordinates (Angstroms)
 Number     Number       Type             X           Y           Z
 ---------------------------------------------------------------------
      1          6           0       -0.843984    2.010274   -0.009140
      2          6           0       -1.509725    0.787930    0.019997
      3          6           0        0.612675   -0.371930    0.075901
      4          1           0       -2.595791    0.763566    0.015232
      5          6           0        0.557064    2.051570   -0.017167
      6          6           0       -0.782662   -0.405149    0.060303
      7          1           0       -1.388799    2.948353   -0.027677
      8          6           0        1.212498    3.400399   -0.047942
      9          6           0        1.280916    0.851596    0.035440
     10          1           0        1.181026   -1.296228    0.127278
     11          1           0       -1.302807   -1.358707    0.087545
     12          1           0        2.367681    0.859020    0.088339
     13          8           0        0.656849    4.418176    0.290829
     14          1           0        2.751294    2.590056   -0.871560
     15          8           0        2.501275    3.445483   -0.486609
 ---------------------------------------------------------------------
                    Distance matrix (angstroms):
                    1          2          3          4          5
     1  C    0.000000
     2  C    1.392188   0.000000
     3  C    2.793561   2.419294   0.000000
     4  H    2.150280   1.086349   3.404010   0.000000
     5  C    1.401679   2.422764   2.425924   3.405951   0.000000
     6  C    2.417200   1.397742   1.395819   2.157630   2.799346
     7  H    1.084970   2.164330   3.878261   2.496391   2.142595
     8  C    2.482553   3.773607   3.821727   4.632488   1.499961
     9  C    2.420686   2.791410   1.394703   3.877759   1.402379
    10  H    3.879720   3.405197   1.086273   4.303447   3.408510
    11  H    3.401456   2.157644   2.154748   2.486178   3.885882
    12  H    3.413162   3.878660   2.143697   4.964928   2.170631
    13  O    2.853151   4.236281   4.795129   4.900183   2.388649
    14  H    3.742451   4.711562   3.774220   5.719597   2.415492
    15  O    3.671315   4.838115   4.296029   5.781401   2.437893
                    6          7          8          9         10
     6  C    0.000000
     7  H    3.408977   0.000000
     8  C    4.298207   2.640360   0.000000
     9  C    2.416273   3.395254   2.551085   0.000000
    10  H    2.157447   4.964321   4.700000   2.152105   0.000000
    11  H    1.086539   4.309460   5.384627   3.400556   2.484937
    12  H    3.394638   4.299990   2.794929   1.088077   2.460642
    13  O    5.038829   2.538995   1.208048   3.629763   5.740725
    14  H    4.725301   4.240387   1.924292   2.450899   4.308900
    15  O    5.090257   3.948472   1.362134   2.913771   4.960215
                   11         12         13         14         15
    11  H    0.000000
    12  H    4.288449   0.000000
    13  O    6.103602   3.954180   0.000000
    14  H    5.740066   2.016197   3.013283   0.000000
    15  O    6.154749   2.652961   2.225410   0.970799   0.000000
 Stoichiometry    C7H6O2
 Framework group  C1[X(C7H6O2)]
 Deg. of freedom    39
 Full point group                 C1      NOp   1
 RotChk:  IX=0 Diff= 6.99D-16
 Largest Abelian subgroup         C1      NOp   1
 Largest concise Abelian subgroup C1      NOp   1
                         Standard orientation:                         
 ---------------------------------------------------------------------
 Center     Atomic      Atomic             Coordinates (Angstroms)
 Number     Number       Type             X           Y           Z
 ---------------------------------------------------------------------
      1          6           0       -0.490506   -1.215413    0.117477
      2          6           0       -1.882221   -1.188495    0.141771
      3          6           0       -1.845190    1.214544   -0.135751
      4          1           0       -2.439009   -2.114569    0.253703
      5          6           0        0.236903   -0.024349   -0.012714
      6          6           0       -2.561817    0.026570    0.017464
      7          1           0        0.056558   -2.148771    0.199469
      8          6           0        1.733502   -0.122620   -0.033058
      9          6           0       -0.450762    1.190232   -0.149013
     10          1           0       -2.369984    2.158432   -0.252607
     11          1           0       -3.648076    0.046469    0.032006
     12          1           0        0.089724    2.120911   -0.309084
     13          8           0        2.330155   -1.137307   -0.304710
     14          1           0        1.821550    1.683178    0.625911
     15          8           0        2.426067    1.008749    0.276403
 ---------------------------------------------------------------------
 Rotational constants (GHZ):           3.8283933           1.2103173           0.9341013
 Leave Link  202 at Mon Sep 21 11:03:47 2026, MaxMem=  3758096384 cpu:               0.2 elap:               0.1
 (Enter /opt/software/gaussian/16RevA.03/g16/l301.exe)
 Standard basis: 6-31G(d) (6D, 7F)
 Ernie: Thresh=  0.10000D-02 Tol=  0.10000D-05 Strict=F.
 There are   147 symmetry adapted cartesian basis functions of A   symmetry.
 There are   147 symmetry adapted basis functions of A   symmetry.
   147 basis functions,   276 primitive gaussians,   147 cartesian basis functions
    32 alpha electrons       32 beta electrons
       nuclear repulsion energy       404.0883146835 Hartrees.
 IExCor=  402 DFT=T Ex+Corr=B3LYP ExCW=0 ScaHFX=  0.200000
 ScaDFX=  0.800000  0.720000  1.000000  0.810000 ScalE2=  1.000000  1.000000
 IRadAn=      5 IRanWt=     -1 IRanGd=            0 ICorTp=0 IEmpDi=  4
 NAtoms=   15 NActive=   15 NUniq=   15 SFac= 1.00D+00 NAtFMM=   60 NAOKFM=F Big=F
 Integral buffers will be    131072 words long.
 Raffenetti 2 integral format.
 Two-electron integral symmetry is turned on.
 Leave Link  301 at Mon Sep 21 11:03:48 2026, MaxMem=  3758096384 cpu:               0.4 elap:               0.1
 (Enter /opt/software/gaussian/16RevA.03/g16/l302.exe)
 NPDir=0 NMtPBC=     1 NCelOv=     1 NCel=       1 NClECP=     1 NCelD=      1
         NCelK=      1 NCelE2=     1 NClLst=     1 CellRange=     0.0.
 One-electron integrals computed using PRISM.
 One-electron integral symmetry used in STVInt
 NBasis=   147 RedAO= T EigKep=  4.74D-04  NBF=   147
 NBsUse=   147 1.00D-06 EigRej= -1.00D+00 NBFU=   147
 Precomputing XC quadrature grid using
 IXCGrd= 4 IRadAn=           5 IRanWt=          -1 IRanGd=           0 AccXCQ= 0.00D+00.
 Generated NRdTot=       0 NPtTot=           0 NUsed=           0 NTot=          32
 NSgBfM=   147   147   147   147   147 MxSgAt=    15 MxSgA2=    15.
 Leave Link  302 at Mon Sep 21 11:03:48 2026, MaxMem=  3758096384 cpu:               0.7 elap:               0.2
 (Enter /opt/software/gaussian/16RevA.03/g16/l303.exe)
 DipDrv:  MaxL=1.
 Leave Link  303 at Mon Sep 21 11:03:48 2026, MaxMem=  3758096384 cpu:               0.1 elap:               0.0
 (Enter /opt/software/gaussian/16RevA.03/g16/l401.exe)
 Initial guess from the checkpoint file:  "job.chk"
 B after Tr=    -0.000000   -0.000000   -0.000000
         Rot=    1.000000    0.000000   -0.000000    0.000000 Ang=   0.00 deg.
 Guess basis will be translated and rotated to current coordinates.
 JPrj=2 DoOrth=T DoCkMO=T.
 Leave Link  401 at Mon Sep 21 11:03:48 2026, MaxMem=  3758096384 cpu:               0.5 elap:               0.1
 (Enter /opt/software/gaussian/16RevA.03/g16/l502.exe)
 Keep R1 ints in memory in canonical form, NReq=64027576.
 FoFCou: FMM=F IPFlag=           0 FMFlag=           0 FMFlg1=           0
         NFxFlg=           0 DoJE=F BraDBF=F KetDBF=F FulRan=T
         wScrn=  0.000000 ICntrl=       600 IOpCl=  0 I1Cent=           0 NGrid=           0
         NMat0=    1 NMatS0=  10878 NMatT0=    0 NMatD0=    1 NMtDS0=    0 NMtDT0=    0
 Symmetry not used in FoFCou.
 Two-electron integral symmetry not used.
 Closed shell SCF:
 Using DIIS extrapolation, IDIIS=  1040.
 NGot=  3758096384 LenX=  3698879719 LenY=  3698857669
 Requested convergence on RMS density matrix=1.00D-08 within 128 cycles.
 Requested convergence on MAX density matrix=1.00D-06.
 Requested convergence on             energy=1.00D-06.
 No special actions if energy rises.

 Cycle   1  Pass 1  IDiag  1:
 E= -420.810574136458    
 DIIS: error= 6.41D-09 at cycle   1 NSaved=   1.
 NSaved= 1 IEnMin= 1 EnMin= -420.810574136458     IErMin= 1 ErrMin= 6.41D-09
 ErrMax= 6.41D-09  0.00D+00 EMaxC= 1.00D-01 BMatC= 5.39D-15 BMatP= 5.39D-15
 IDIUse=1 WtCom= 1.00D+00 WtEn= 0.00D+00
 Coeff-Com:  0.100D+01
 Coeff:      0.100D+01
 Gap=     0.214 Goal=   None    Shift=    0.000
 RMSDP=1.22D-09 MaxDP=2.31D-08              OVMax= 5.13D-08

 SCF Done:  E(RB3LYP) =  -420.810574136     A.U. after    1 cycles
            NFock=  1  Conv=0.12D-08     -V/T= 2.0093
 KE= 4.169273468311D+02 PE=-1.788742232150D+03 EE= 5.469159964986D+02
 Leave Link  502 at Mon Sep 21 11:03:49 2026, MaxMem=  3758096384 cpu:               5.5 elap:               1.2
 (Enter /opt/software/gaussian/16RevA.03/g16/l801.exe)
 DoSCS=F DFT=T ScalE2(SS,OS)=  1.000000  1.000000
 Range of M.O.s used for correlation:     1   147
 NBasis=   147 NAE=    32 NBE=    32 NFC=     0 NFV=     0
 NROrb=    147 NOA=    32 NOB=    32 NVA=   115 NVB=   115
 Leave Link  801 at Mon Sep 21 11:03:49 2026, MaxMem=  3758096384 cpu:               0.1 elap:               0.0
 (Enter /opt/software/gaussian/16RevA.03/g16/l1002.exe)
 Minotr:  Closed shell wavefunction.
          Direct CPHF calculation.
          Differentiating once with respect to electric field.
                with respect to dipole field.
          Electric field/nuclear overlap derivatives assumed to be zero.
          Requested convergence is 1.0D-08 RMS, and 1.0D-07 maximum.
          Secondary convergence is 1.0D-12 RMS, and 1.0D-12 maximum.
          NewPWx=F KeepS1=T KeepF1=T KeepIn=T MapXYZ=F SortEE=F KeepMc=T.
         4436 words used for storage of precomputed grid.
 Keep R1 ints in memory in canonical form, NReq=64017685.
 FoFCou: FMM=F IPFlag=           0 FMFlag=           0 FMFlg1=           0
         NFxFlg=           0 DoJE=F BraDBF=F KetDBF=F FulRan=T
         wScrn=  0.000000 ICntrl=       600 IOpCl=  0 I1Cent=           0 NGrid=           0
         NMat0=    1 NMatS0=  10878 NMatT0=    0 NMatD0=    1 NMtDS0=    0 NMtDT0=    0
 Symmetry not used in FoFCou.
 Two-electron integral symmetry not used.
          MDV=    3758096384 using IRadAn=       1.
          Solving linear equations simultaneously, MaxMat=       0.
          There are     3 degrees of freedom in the 1st order CPHF.  IDoFFX=0 NUNeed=     3.
      3 vectors produced by pass  0 Test12= 1.23D-13 3.33D-08 XBig12= 1.25D+02 6.27D+00.
 AX will form     3 AO Fock derivatives at one time.
      3 vectors produced by pass  1 Test12= 1.23D-13 3.33D-08 XBig12= 4.31D+01 1.75D+00.
      3 vectors produced by pass  2 Test12= 1.23D-13 3.33D-08 XBig12= 4.35D+00 3.99D-01.
      3 vectors produced by pass  3 Test12= 1.23D-13 3.33D-08 XBig12= 2.07D+00 2.89D-01.
      3 vectors produced by pass  4 Test12= 1.23D-13 3.33D-08 XBig12= 1.75D-01 8.12D-02.
      3 vectors produced by pass  5 Test12= 1.23D-13 3.33D-08 XBig12= 2.90D-02 4.94D-02.
      3 vectors produced by pass  6 Test12= 1.23D-13 3.33D-08 XBig12= 3.11D-03 1.44D-02.
      3 vectors produced by pass  7 Test12= 1.23D-13 3.33D-08 XBig12= 3.42D-04 5.84D-03.
      3 vectors produced by pass  8 Test12= 1.23D-13 3.33D-08 XBig12= 2.43D-05 1.36D-03.
      3 vectors produced by pass  9 Test12= 1.23D-13 3.33D-08 XBig12= 1.35D-06 2.58D-04.
      3 vectors produced by pass 10 Test12= 1.23D-13 3.33D-08 XBig12= 3.71D-08 5.11D-05.
      3 vectors produced by pass 11 Test12= 1.23D-13 3.33D-08 XBig12= 1.33D-09 5.39D-06.
      3 vectors produced by pass 12 Test12= 1.23D-13 3.33D-08 XBig12= 4.33D-11 1.11D-06.
      2 vectors produced by pass 13 Test12= 1.23D-13 3.33D-08 XBig12= 1.30D-12 1.75D-07.
 InvSVY:  IOpt=1 It=  1 EMax= 3.55D-15
 Solved reduced A of dimension    41 with     3 vectors.
 End of Minotr F.D. properties file   721 does not exist.
 End of Minotr F.D. properties file   722 does not exist.
 End of Minotr F.D. properties file   788 does not exist.
 Leave Link 1002 at Mon Sep 21 11:03:56 2026, MaxMem=  3758096384 cpu:              34.6 elap:               7.0
 (Enter /opt/software/gaussian/16RevA.03/g16/l1101.exe)
 Using compressed storage, NAtomX=    15.
 Will process     16 centers per pass.
 Leave Link 1101 at Mon Sep 21 11:03:57 2026, MaxMem=  3758096384 cpu:               0.6 elap:               0.1
 (Enter /opt/software/gaussian/16RevA.03/g16/l1102.exe)
 Symmetrizing basis deriv contribution to polar:
 IMax=3 JMax=2 DiffMx= 0.00D+00
 Leave Link 1102 at Mon Sep 21 11:03:57 2026, MaxMem=  3758096384 cpu:               0.1 elap:               0.0
 (Enter /opt/software/gaussian/16RevA.03/g16/l1110.exe)
 Forming Gx(P) for the SCF density, NAtomX=    15.
 Integral derivatives from FoFJK, PRISM(SPDF).
 Do as many integral derivatives as possible in FoFJK.
 G2DrvN: MDV=    3758095198.
 G2DrvN: will do    16 centers at a time, making    1 passes.
 PxScal for G2LodP:  IOpCl= 0 ISclPx=1 IMOff=     1 NMtTot=     4 NTT=   10878 ScalPx= 2.29D+00
 Calling FoFCou, ICntrl=  3107 FMM=F I1Cent=   0 AccDes= 0.00D+00.
 FoFJK:  IHMeth= 1 ICntrl=    3107 DoSepK=F KAlg= 0 I1Cent=           0 FoldK=F
 IRaf=         0 NMat=       1 IRICut=       1 DoRegI=T DoRafI=F ISym2E= 0 IDoP0=0 IntGTp=1.
 FoFCou: FMM=F IPFlag=           0 FMFlag=      100000 FMFlg1=           0
         NFxFlg=           0 DoJE=F BraDBF=F KetDBF=F FulRan=T
         wScrn=  0.000000 ICntrl=      3107 IOpCl=  0 I1Cent=           0 NGrid=           0
         NMat0=    1 NMatS0=      1 NMatT0=    0 NMatD0=    4 NMtDS0=    3 NMtDT0=    0
 Symmetry not used in FoFCou.
 End of G2Drv F.D. properties file   721 does not exist.
 End of G2Drv F.D. properties file   722 does not exist.
 End of G2Drv F.D. properties file   788 does not exist.
 Leave Link 1110 at Mon Sep 21 11:04:16 2026, MaxMem=  3758096384 cpu:              95.3 elap:              19.2
 (Enter /opt/software/gaussian/16RevA.03/g16/l1002.exe)
 Minotr:  Closed shell wavefunction.
          IDoAtm=111111111111111
          Direct CPHF calculation.
          Differentiating once with respect to electric field.
                with respect to dipole field.
          Differentiating once with respect to nuclear coordinates.
          Requested convergence is 1.0D-08 RMS, and 1.0D-07 maximum.
          Secondary convergence is 1.0D-12 RMS, and 1.0D-12 maximum.
          NewPWx=T KeepS1=F KeepF1=F KeepIn=T MapXYZ=F SortEE=F KeepMc=T.
         4436 words used for storage of precomputed grid.
 Keep R1 ints in memory in canonical form, NReq=64025645.
 FoFCou: FMM=F IPFlag=           0 FMFlag=           0 FMFlg1=           0
         NFxFlg=           0 DoJE=F BraDBF=F KetDBF=F FulRan=T
         wScrn=  0.000000 ICntrl=       600 IOpCl=  0 I1Cent=           0 NGrid=           0
         NMat0=    1 NMatS0=  10878 NMatT0=    0 NMatD0=    1 NMtDS0=    0 NMtDT0=    0
 Symmetry not used in FoFCou.
 Two-electron integral symmetry not used.
          MDV=    3758096384 using IRadAn=       1.
          Solving linear equations simultaneously, MaxMat=       0.
          There are    48 degrees of freedom in the 1st order CPHF.  IDoFFX=5 NUNeed=    48.
 Will reuse    3 saved solutions.
     42 vectors produced by pass  0 Test12= 7.67D-15 2.08D-09 XBig12= 1.87D-01 1.52D-01.
 AX will form    42 AO Fock derivatives at one time.
     42 vectors produced by pass  1 Test12= 7.67D-15 2.08D-09 XBig12= 2.22D-02 5.76D-02.
     42 vectors produced by pass  2 Test12= 7.67D-15 2.08D-09 XBig12= 2.01D-04 2.89D-03.
     42 vectors produced by pass  3 Test12= 7.67D-15 2.08D-09 XBig12= 7.85D-07 1.87D-04.
     42 vectors produced by pass  4 Test12= 7.67D-15 2.08D-09 XBig12= 1.70D-09 5.83D-06.
     36 vectors produced by pass  5 Test12= 7.67D-15 2.08D-09 XBig12= 1.62D-12 1.52D-07.
      5 vectors produced by pass  6 Test12= 7.67D-15 2.08D-09 XBig12= 1.06D-15 5.02D-09.
 InvSVY:  IOpt=1 It=  1 EMax= 1.44D-15
 Solved reduced A of dimension   251 with    42 vectors.
 FullF1:  Do perturbations      1 to       3.
 Isotropic polarizability for W=    0.000000       71.82 Bohr**3.
 FullF1:  Do perturbations      1 to       6.
 End of Minotr F.D. properties file   721 does not exist.
 End of Minotr F.D. properties file   722 does not exist.
 End of Minotr F.D. properties file   788 does not exist.
 Leave Link 1002 at Mon Sep 21 11:04:29 2026, MaxMem=  3758096384 cpu:              63.4 elap:              13.0
 (Enter /opt/software/gaussian/16RevA.03/g16/l601.exe)
 Copying SCF densities to generalized density rwf, IOpCl= 0 IROHF=0.

 **********************************************************************

            Population analysis using the SCF density.

 **********************************************************************

 Orbital symmetries:
       Occupied  (A) (A) (A) (A) (A) (A) (A) (A) (A) (A) (A) (A)
                 (A) (A) (A) (A) (A) (A) (A) (A) (A) (A) (A) (A)
                 (A) (A) (A) (A) (A) (A) (A) (A)
       Virtual   (A) (A) (A) (A) (A) (A) (A) (A) (A) (A) (A) (A)
                 (A) (A) (A) (A) (A) (A) (A) (A) (A) (A) (A) (A)
                 (A) (A) (A) (A) (A) (A) (A) (A) (A) (A) (A) (A)
                 (A) (A) (A) (A) (A) (A) (A) (A) (A) (A) (A) (A)
                 (A) (A) (A) (A) (A) (A) (A) (A) (A) (A) (A) (A)
                 (A) (A) (A) (A) (A) (A) (A) (A) (A) (A) (A) (A)
                 (A) (A) (A) (A) (A) (A) (A) (A) (A) (A) (A) (A)
                 (A) (A) (A) (A) (A) (A) (A) (A) (A) (A) (A) (A)
                 (A) (A) (A) (A) (A) (A) (A) (A) (A) (A) (A) (A)
                 (A) (A) (A) (A) (A) (A) (A)
 The electronic state is 1-A.
 Alpha  occ. eigenvalues --  -19.19526 -19.13295 -10.32082 -10.21946 -10.21890
 Alpha  occ. eigenvalues --  -10.21303 -10.21221 -10.20927 -10.20863  -1.09826
 Alpha  occ. eigenvalues --   -1.01649  -0.87466  -0.77597  -0.76583  -0.65304
 Alpha  occ. eigenvalues --   -0.62529  -0.60826  -0.56210  -0.50493  -0.47471
 Alpha  occ. eigenvalues --   -0.46261  -0.44740  -0.44060  -0.43334  -0.39586
 Alpha  occ. eigenvalues --   -0.38064  -0.36729  -0.36308  -0.31630  -0.27821
 Alpha  occ. eigenvalues --   -0.27240  -0.26510
 Alpha virt. eigenvalues --   -0.05104  -0.02206   0.04682   0.05930   0.09140
 Alpha virt. eigenvalues --    0.13165   0.14555   0.15380   0.17600   0.18340
 Alpha virt. eigenvalues --    0.22529   0.26699   0.28283   0.29215   0.30480
 Alpha virt. eigenvalues --    0.35947   0.38767   0.46917   0.50551   0.52118
 Alpha virt. eigenvalues --    0.53410   0.54235   0.55528   0.57104   0.57678
 Alpha virt. eigenvalues --    0.58710   0.58946   0.60136   0.60654   0.62601
 Alpha virt. eigenvalues --    0.65092   0.67591   0.69562   0.72621   0.74955
 Alpha virt. eigenvalues --    0.78012   0.80633   0.82037   0.82227   0.83886
 Alpha virt. eigenvalues --    0.86202   0.88913   0.92289   0.93966   0.95302
 Alpha virt. eigenvalues --    0.97348   0.98979   1.02378   1.06202   1.06712
 Alpha virt. eigenvalues --    1.10562   1.12704   1.16220   1.18581   1.21426
 Alpha virt. eigenvalues --    1.24302   1.31139   1.35825   1.39055   1.40891
 Alpha virt. eigenvalues --    1.42716   1.45612   1.46513   1.47432   1.49418
 Alpha virt. eigenvalues --    1.50182   1.64941   1.70158   1.75786   1.76234
 Alpha virt. eigenvalues --    1.77615   1.83681   1.84719   1.86118   1.88725
 Alpha virt. eigenvalues --    1.90760   1.92440   1.95999   2.00157   2.03430
 Alpha virt. eigenvalues --    2.04961   2.12164   2.12918   2.13107   2.15105
 Alpha virt. eigenvalues --    2.26062   2.26458   2.28735   2.29252   2.41163
 Alpha virt. eigenvalues --    2.44892   2.49991   2.57064   2.59099   2.61377
 Alpha virt. eigenvalues --    2.63148   2.68705   2.70556   2.72143   2.74426
 Alpha virt. eigenvalues --    2.80902   2.86685   2.97574   3.06764   3.14573
 Alpha virt. eigenvalues --    3.40498   3.85123   4.05243   4.08103   4.09564
 Alpha virt. eigenvalues --    4.19557   4.30480   4.33022   4.44070   4.69423
          Condensed to atoms (all electrons):
               1          2          3          4          5          6
     1  C    4.960032   0.498835  -0.037053  -0.038908   0.511141  -0.032227
     2  C    0.498835   4.898689  -0.027661   0.361399  -0.022991   0.538114
     3  C   -0.037053  -0.027661   4.854602   0.004562  -0.024412   0.552252
     4  H   -0.038908   0.361399   0.004562   0.576890   0.003744  -0.042996
     5  C    0.511141  -0.022991  -0.024412   0.003744   5.042380  -0.035193
     6  C   -0.032227   0.538114   0.552252  -0.042996  -0.035193   4.847070
     7  H    0.357974  -0.040931   0.000382  -0.004846  -0.043837   0.004232
     8  C   -0.026346   0.005665   0.003723  -0.000120   0.278524   0.000197
     9  C   -0.061177  -0.041248   0.517765   0.000725   0.481302  -0.036514
    10  H    0.000765   0.004442   0.359799  -0.000171   0.003704  -0.041065
    11  H    0.004447  -0.042191  -0.042343  -0.005374   0.000620   0.360788
    12  H    0.005443   0.000460  -0.030907   0.000017  -0.054152   0.004439
    13  O    0.003122   0.000781  -0.000049   0.000001  -0.097947  -0.000014
    14  H   -0.000582  -0.000045   0.000117   0.000000   0.001637   0.000006
    15  O    0.004540  -0.000048   0.000501   0.000000  -0.100047  -0.000013
               7          8          9         10         11         12
     1  C    0.357974  -0.026346  -0.061177   0.000765   0.004447   0.005443
     2  C   -0.040931   0.005665  -0.041248   0.004442  -0.042191   0.000460
     3  C    0.000382   0.003723   0.517765   0.359799  -0.042343  -0.030907
     4  H   -0.004846  -0.000120   0.000725  -0.000171  -0.005374   0.000017
     5  C   -0.043837   0.278524   0.481302   0.003704   0.000620  -0.054152
     6  C    0.004232   0.000197  -0.036514  -0.041065   0.360788   0.004439
     7  H    0.545720  -0.007920   0.005943   0.000016  -0.000152  -0.000148
     8  C   -0.007920   4.398981  -0.038706  -0.000103   0.000006  -0.006550
     9  C    0.005943  -0.038706   5.047578  -0.039690   0.005122   0.344014
    10  H    0.000016  -0.000103  -0.039690   0.580736  -0.005391  -0.005434
    11  H   -0.000152   0.000006   0.005122  -0.005391   0.581427  -0.000182
    12  H   -0.000148  -0.006550   0.344014  -0.005434  -0.000182   0.598080
    13  O    0.012749   0.594851   0.002616   0.000000  -0.000000  -0.000025
    14  H   -0.000059  -0.015942   0.009391  -0.000006  -0.000000   0.005503
    15  O    0.000297   0.266538   0.000232   0.000003   0.000000   0.004882
              13         14         15
     1  C    0.003122  -0.000582   0.004540
     2  C    0.000781  -0.000045  -0.000048
     3  C   -0.000049   0.000117   0.000501
     4  H    0.000001   0.000000   0.000000
     5  C   -0.097947   0.001637  -0.100047
     6  C   -0.000014   0.000006  -0.000013
     7  H    0.012749  -0.000059   0.000297
     8  C    0.594851  -0.015942   0.266538
     9  C    0.002616   0.009391   0.000232
    10  H    0.000000  -0.000006   0.000003
    11  H   -0.000000  -0.000000   0.000000
    12  H   -0.000025   0.005503   0.004882
    13  O    8.002014   0.004657  -0.078597
    14  H    0.004657   0.366550   0.218260
    15  O   -0.078597   0.218260   8.257378
 Mulliken charges:
               1
     1  C   -0.150007
     2  C   -0.133271
     3  C   -0.131279
     4  H    0.145077
     5  C    0.055527
     6  C   -0.119076
     7  H    0.170580
     8  C    0.547202
     9  C   -0.197354
    10  H    0.142394
    11  H    0.143222
    12  H    0.134559
    13  O   -0.444161
    14  H    0.410513
    15  O   -0.573927
 Sum of Mulliken charges =  -0.00000
 Mulliken charges with hydrogens summed into heavy atoms:
               1
     1  C    0.020572
     2  C    0.011806
     3  C    0.011115
     5  C    0.055527
     6  C    0.024146
     8  C    0.547202
     9  C   -0.062795
    13  O   -0.444161
    15  O   -0.163414
 APT charges:
               1
     1  C   -0.009345
     2  C   -0.021669
     3  C   -0.046035
     4  H    0.024856
     5  C   -0.196561
     6  C    0.018005
     7  H    0.068944
     8  C    1.239571
     9  C   -0.009199
    10  H    0.023339
    11  H    0.025680
    12  H    0.024473
    13  O   -0.730496
    14  H    0.296010
    15  O   -0.707572
 Sum of APT charges =   0.00000
 APT charges with hydrogens summed into heavy atoms:
               1
     1  C    0.059598
     2  C    0.003187
     3  C   -0.022696
     5  C   -0.196561
     6  C    0.043685
     8  C    1.239571
     9  C    0.015274
    13  O   -0.730496
    15  O   -0.411562
 Electronic spatial extent (au):  <R**2>=           1177.8038
 Charge=              0.0000 electrons
 Dipole moment (field-independent basis, Debye):
    X=             -4.0943    Y=              2.2849    Z=              0.9382  Tot=              4.7816
 Quadrupole moment (field-independent basis, Debye-Ang):
   XX=            -56.7428   YY=            -45.2752   ZZ=            -52.5335
   XY=              4.6389   XZ=              1.6807   YZ=             -0.4679
 Traceless Quadrupole moment (field-independent basis, Debye-Ang):
   XX=             -5.2256   YY=              6.2420   ZZ=             -1.0163
   XY=              4.6389   XZ=              1.6807   YZ=             -0.4679
 Octapole moment (field-independent basis, Debye-Ang**2):
  XXX=            -35.2834  YYY=              8.8839  ZZZ=              0.7135  XYY=             -1.5267
  XXY=              7.3325  XXZ=              2.9798  XZZ=             11.4648  YZZ=              1.2305
  YYZ=              3.7409  XYZ=              1.3559
 Hexadecapole moment (field-independent basis, Debye-Ang**3):
 XXXX=          -1077.7056 YYYY=           -344.9512 ZZZZ=            -60.4585 XXXY=             12.1335
 XXXZ=              3.3952 YYYX=             19.5529 YYYZ=              1.8646 ZZZX=              1.2986
 ZZZY=              4.5692 XXYY=           -233.9948 XXZZ=           -191.4165 YYZZ=            -75.9175
 XXYZ=             -3.5138 YYXZ=              7.6077 ZZXY=              2.5860
 N-N= 4.040883146835D+02 E-N=-1.788742232445D+03  KE= 4.169273468311D+02
  Exact polarizability: 100.481  -1.778  85.211  -1.084  -1.978  29.772
 Approx polarizability: 159.588  -7.356 152.330  -3.145  -2.546  45.807
 No NMR shielding tensors so no spin-rotation constants.
 Leave Link  601 at Mon Sep 21 11:04:29 2026, MaxMem=  3758096384 cpu:               0.6 elap:               0.2
 (Enter /opt/software/gaussian/16RevA.03/g16/l701.exe)
 ... and contract with generalized density number  0.
 Compute integral second derivatives.
 Leave Link  701 at Mon Sep 21 11:04:29 2026, MaxMem=  3758096384 cpu:               0.5 elap:               0.1
 (Enter /opt/software/gaussian/16RevA.03/g16/l702.exe)
 L702 exits ... SP integral derivatives will be done elsewhere.
 Leave Link  702 at Mon Sep 21 11:04:29 2026, MaxMem=  3758096384 cpu:               0.1 elap:               0.0
 (Enter /opt/software/gaussian/16RevA.03/g16/l703.exe)
 Integral derivatives from FoFJK, PRISM(SPDF).
 Compute integral second derivatives, UseDBF=F ICtDFT=           0.
 Calling FoFJK, ICntrl=    100127 FMM=F ISym2X=0 I1Cent= 0 IOpClX= 0 NMat=1 NMatS=1 NMatT=0.
 FoFJK:  IHMeth= 1 ICntrl=  100127 DoSepK=F KAlg= 0 I1Cent=           0 FoldK=F
 IRaf=         0 NMat=       1 IRICut=       1 DoRegI=T DoRafI=F ISym2E= 0 IDoP0=0 IntGTp=1.
 FoFCou: FMM=F IPFlag=           0 FMFlag=      100000 FMFlg1=         800
         NFxFlg=           0 DoJE=F BraDBF=F KetDBF=F FulRan=T
         wScrn=  0.000000 ICntrl=    100127 IOpCl=  0 I1Cent=           0 NGrid=           0
         NMat0=    1 NMatS0=      1 NMatT0=    0 NMatD0=    1 NMtDS0=    0 NMtDT0=    0
 Symmetry not used in FoFCou.
 Leave Link  703 at Mon Sep 21 11:04:57 2026, MaxMem=  3758096384 cpu:             138.7 elap:              27.8
 (Enter /opt/software/gaussian/16RevA.03/g16/l716.exe)
 Dipole        =-1.61080887D+00 8.98952583D-01 3.69129028D-01
 Polarizability= 1.00481250D+02-1.77772428D+00 8.52105738D+01
                -1.08358104D+00-1.97822299D+00 2.97719846D+01
 HyperPolar    = 7.49912265D+01 8.42722380D+00-5.03672791D+01
                 1.91317776D+01 6.49824024D+00 1.22745859D+00
                 5.68862500D+00-5.67699444D-01 8.00577462D+00
                 4.33417300D+00
 Full mass-weighted force constant matrix:
 Low frequencies ---   -5.0053   -2.2796   -0.0001    0.0005    0.0007    3.8282
 Low frequencies ---   69.8620  154.1615  217.4503
 Diagonal vibrational polarizability:
       12.9448102      13.5880100      38.1266354
 Diagonal vibrational hyperpolarizability:
      -76.6571123     116.4720226     349.6852224
 Harmonic frequencies (cm**-1), IR intensities (KM/Mole), Raman scattering
 activities (A**4/AMU), depolarization ratios for plane and unpolarized
 incident light, reduced masses (AMU), force constants (mDyne/A),
 and normal coordinates:
                      1                      2                      3
                      A                      A                      A
 Frequencies --     69.8614               154.1615               217.4502
 Red. masses --      5.5256                 5.1467                 5.6556
 Frc consts  --      0.0159                 0.0721                 0.1576
 IR Inten    --      4.6233                 3.3939                 9.7906
 Raman Activ --      2.2389                 4.8543                 0.2519
 Depolar (P) --      0.7489                 0.7500                 0.6969
 Depolar (U) --      0.8564                 0.8571                 0.8214
  Atom  AN      X      Y      Z        X      Y      Z        X      Y      Z
     1   6     0.01   0.00  -0.15     0.01   0.02   0.24    -0.13  -0.14   0.05
     2   6     0.01  -0.03  -0.18     0.01  -0.02  -0.04    -0.14   0.05  -0.04
     3   6    -0.02   0.01   0.17    -0.01  -0.02  -0.07     0.15   0.05   0.03
     4   1     0.02  -0.05  -0.33     0.01  -0.04  -0.14    -0.27   0.12  -0.10
     5   6    -0.00   0.03   0.01    -0.00   0.04   0.29     0.00  -0.22   0.10
     6   6    -0.01  -0.02  -0.01    -0.01  -0.05  -0.27     0.00   0.13  -0.04
     7   1     0.02   0.00  -0.26     0.02   0.04   0.32    -0.26  -0.22   0.07
     8   6     0.00   0.00   0.03    -0.01   0.02   0.03     0.01  -0.05   0.02
     9   6    -0.02   0.03   0.17    -0.01   0.02   0.23     0.13  -0.15   0.08
    10   1    -0.03   0.02   0.31    -0.02  -0.04  -0.19     0.28   0.12   0.02
    11   1    -0.01  -0.03  -0.02    -0.01  -0.09  -0.57     0.00   0.25  -0.11
    12   1    -0.06   0.07   0.29    -0.01   0.04   0.32     0.24  -0.22   0.05
    13   8    -0.03  -0.09   0.32    -0.11   0.01  -0.17     0.23   0.10  -0.03
    14   1     0.10   0.20  -0.49     0.22   0.01   0.04    -0.32  -0.07   0.14
    15   8     0.05   0.06  -0.31     0.11  -0.01  -0.13    -0.23   0.15  -0.12
                      4                      5                      6
                      A                      A                      A
 Frequencies --    376.1453               415.9819               420.1530
 Red. masses --      7.0274                 3.2660                 3.5022
 Frc consts  --      0.5858                 0.3330                 0.3643
 IR Inten    --      1.9688                 3.4095                 5.1466
 Raman Activ --      3.9324                 0.2386                 0.6502
 Depolar (P) --      0.3149                 0.6687                 0.7064
 Depolar (U) --      0.4790                 0.8014                 0.8279
  Atom  AN      X      Y      Z        X      Y      Z        X      Y      Z
     1   6    -0.17   0.04  -0.02     0.02   0.07   0.24     0.03   0.03  -0.06
     2   6    -0.21   0.06   0.03     0.01   0.00  -0.11     0.03   0.04   0.23
     3   6    -0.18  -0.05  -0.02    -0.03   0.04   0.24    -0.02   0.01  -0.04
     4   1    -0.15   0.03   0.07     0.04  -0.03  -0.21     0.06   0.06   0.51
     5   6     0.01  -0.03  -0.02     0.01   0.03  -0.13     0.01   0.02  -0.18
     6   6    -0.28   0.01   0.00    -0.02  -0.02  -0.12     0.00  -0.02  -0.16
     7   1    -0.29  -0.04  -0.01     0.03   0.10   0.54     0.04   0.04  -0.09
     8   6     0.19   0.01  -0.01     0.02  -0.04  -0.09     0.01  -0.05  -0.11
     9   6    -0.15  -0.08   0.02    -0.03   0.02  -0.11    -0.02   0.07   0.23
    10   1    -0.10  -0.01  -0.03    -0.04   0.06   0.51    -0.03   0.00  -0.07
    11   1    -0.28   0.03   0.01    -0.02  -0.06  -0.25     0.00  -0.07  -0.34
    12   1    -0.22  -0.02   0.09    -0.07   0.03  -0.23    -0.06   0.14   0.52
    13   8     0.32   0.08  -0.00     0.08  -0.04   0.01     0.09  -0.05   0.03
    14   1     0.39   0.17  -0.28    -0.16  -0.02  -0.18    -0.21  -0.03  -0.18
    15   8     0.32  -0.06   0.03    -0.06  -0.04   0.04    -0.11  -0.04   0.02
                      7                      8                      9
                      A                      A                      A
 Frequencies --    504.8266               522.1164               632.3971
 Red. masses --      1.3081                 3.2196                 6.2576
 Frc consts  --      0.1964                 0.5171                 1.4745
 IR Inten    --     84.9168                23.4556                 0.9450
 Raman Activ --      2.3826                 1.1851                 4.9935
 Depolar (P) --      0.4718                 0.7029                 0.7493
 Depolar (U) --      0.6411                 0.8256                 0.8567
  Atom  AN      X      Y      Z        X      Y      Z        X      Y      Z
     1   6     0.01   0.05  -0.00     0.05   0.11  -0.00     0.23  -0.22   0.02
     2   6     0.01   0.00  -0.01     0.05   0.03  -0.08     0.25   0.23  -0.04
     3   6    -0.04  -0.01  -0.01    -0.06   0.01  -0.09    -0.25   0.24  -0.03
     4   1     0.05  -0.02  -0.01     0.11  -0.03  -0.28     0.10   0.32  -0.03
     5   6     0.01   0.04  -0.00     0.03   0.09   0.19    -0.01  -0.14   0.02
     6   6    -0.03  -0.02   0.01    -0.02   0.00   0.12     0.00   0.14  -0.01
     7   1     0.02   0.06  -0.01     0.08   0.11  -0.19     0.09  -0.29   0.04
     8   6     0.02  -0.05   0.02     0.04  -0.13   0.02     0.01   0.01  -0.01
     9   6    -0.02   0.05  -0.01    -0.04   0.08   0.02    -0.24  -0.21   0.02
    10   1    -0.07  -0.02  -0.01    -0.10  -0.04  -0.30    -0.10   0.32  -0.03
    11   1    -0.03  -0.04   0.02    -0.02  -0.06   0.18    -0.00  -0.27   0.05
    12   1    -0.02   0.04   0.00    -0.14   0.11  -0.17    -0.07  -0.30   0.04
    13   8     0.05  -0.04   0.02     0.14  -0.07  -0.05    -0.01  -0.01   0.01
    14   1     0.06  -0.41   0.89    -0.36   0.03  -0.59     0.02  -0.07   0.14
    15   8    -0.02   0.01  -0.07    -0.15  -0.08   0.00     0.01  -0.01  -0.00
                     10                     11                     12
                      A                      A                      A
 Frequencies --    650.5885               698.2552               719.1662
 Red. masses --      7.3134                 4.3925                 1.5401
 Frc consts  --      1.8238                 1.2618                 0.4693
 IR Inten    --      8.7462                 0.2146                66.0847
 Raman Activ --      0.6136                 0.0674                 2.2268
 Depolar (P) --      0.6003                 0.6237                 0.6772
 Depolar (U) --      0.7503                 0.7682                 0.8075
  Atom  AN      X      Y      Z        X      Y      Z        X      Y      Z
     1   6     0.04   0.16  -0.04     0.01   0.00  -0.19     0.01   0.02  -0.00
     2   6     0.01   0.18  -0.00     0.02   0.03   0.20     0.01   0.01  -0.07
     3   6     0.02  -0.19   0.04    -0.02   0.04   0.21    -0.00  -0.01  -0.07
     4   1     0.22   0.05   0.03     0.04   0.03   0.28     0.04   0.05   0.39
     5   6     0.27  -0.02  -0.00    -0.00   0.02   0.15     0.01  -0.00  -0.05
     6   6    -0.26   0.01  -0.02    -0.00  -0.03  -0.19    -0.01  -0.00  -0.02
     7   1    -0.19   0.03  -0.01     0.02  -0.00  -0.40     0.00   0.05   0.40
     8   6     0.23   0.02  -0.01     0.00  -0.08   0.25    -0.00  -0.05   0.17
     9   6     0.05  -0.21   0.02    -0.01   0.00  -0.20    -0.00  -0.00  -0.02
    10   1     0.27  -0.05   0.01    -0.04   0.04   0.28     0.01   0.05   0.42
    11   1    -0.26   0.02  -0.05    -0.01  -0.09  -0.45     0.00   0.04   0.50
    12   1    -0.16  -0.09  -0.05    -0.02  -0.02  -0.38    -0.03   0.09   0.44
    13   8    -0.19  -0.23  -0.06     0.02   0.02  -0.07     0.00   0.01  -0.05
    14   1    -0.46  -0.06  -0.03    -0.00   0.05  -0.15     0.01   0.06  -0.10
    15   8    -0.03   0.27   0.07    -0.01  -0.01  -0.05    -0.02  -0.00  -0.03
                     13                     14                     15
                      A                      A                      A
 Frequencies --    785.2687               807.2594               863.6629
 Red. masses --      6.4887                 2.7163                 1.2491
 Frc consts  --      2.3575                 1.0429                 0.5489
 IR Inten    --      7.4120                 4.9198                 1.0211
 Raman Activ --      8.9795                 0.2173                 5.2162
 Depolar (P) --      0.1120                 0.2604                 0.6546
 Depolar (U) --      0.2015                 0.4132                 0.7913
  Atom  AN      X      Y      Z        X      Y      Z        X      Y      Z
     1   6    -0.09  -0.17   0.01     0.00   0.00   0.05    -0.00   0.01   0.07
     2   6    -0.12  -0.21   0.02     0.01   0.00   0.00     0.00   0.01   0.07
     3   6    -0.11   0.21  -0.03    -0.01   0.02   0.02     0.00  -0.01  -0.06
     4   1    -0.37  -0.05   0.14    -0.01  -0.04  -0.44    -0.02  -0.06  -0.53
     5   6    -0.08   0.00   0.03    -0.00  -0.03  -0.24     0.00  -0.00  -0.01
     6   6     0.19  -0.01  -0.02     0.01   0.01   0.11     0.01   0.01   0.02
     7   1     0.02  -0.11   0.05     0.00   0.00   0.07     0.00  -0.03  -0.44
     8   6     0.24  -0.06  -0.01     0.01  -0.06   0.25     0.00  -0.00   0.00
     9   6    -0.08   0.18  -0.02    -0.01   0.02   0.08    -0.00  -0.02  -0.08
    10   1    -0.37   0.09   0.10    -0.03  -0.07  -0.57     0.01   0.06   0.41
    11   1     0.19   0.01   0.13    -0.00  -0.08  -0.53     0.00  -0.00  -0.12
    12   1     0.00   0.15   0.01    -0.01  -0.00  -0.11    -0.02   0.10   0.55
    13   8     0.00  -0.24  -0.07    -0.01   0.00  -0.07    -0.00  -0.00  -0.00
    14   1    -0.37  -0.04  -0.09     0.04   0.09  -0.08    -0.00   0.01  -0.01
    15   8     0.08   0.27   0.07     0.01   0.03  -0.03    -0.00   0.01   0.00
                     16                     17                     18
                      A                      A                      A
 Frequencies --    941.2267               980.1154              1008.9651
 Red. masses --      1.3847                 1.3543                 1.2908
 Frc consts  --      0.7228                 0.7665                 0.7742
 IR Inten    --      1.0965                 0.8095                 0.1702
 Raman Activ --      2.3730                 0.2994                 0.5328
 Depolar (P) --      0.6285                 0.3580                 0.2609
 Depolar (U) --      0.7719                 0.5273                 0.4139
  Atom  AN      X      Y      Z        X      Y      Z        X      Y      Z
     1   6    -0.01  -0.01  -0.07    -0.00  -0.02  -0.10     0.01  -0.01   0.07
     2   6    -0.00  -0.00  -0.04     0.01   0.01   0.06    -0.00  -0.01  -0.10
     3   6     0.00   0.00   0.05    -0.01  -0.01  -0.10     0.00  -0.01  -0.05
     4   1    -0.01   0.03   0.19     0.01  -0.03  -0.28     0.01   0.06   0.60
     5   6     0.01   0.01   0.06     0.00   0.00   0.02    -0.01  -0.00  -0.01
     6   6     0.02   0.01   0.09    -0.00   0.00   0.06    -0.02   0.01   0.08
     7   1    -0.02   0.03   0.41    -0.03   0.03   0.56     0.04  -0.04  -0.44
     8   6     0.00   0.01  -0.04    -0.00   0.00  -0.01    -0.00  -0.00   0.01
     9   6    -0.01  -0.02  -0.11     0.01   0.02   0.05     0.01   0.01   0.01
    10   1    -0.00  -0.05  -0.31    -0.02   0.06   0.57     0.01   0.05   0.34
    11   1     0.01  -0.05  -0.50    -0.01  -0.06  -0.37    -0.03  -0.06  -0.52
    12   1    -0.04   0.12   0.62     0.02  -0.05  -0.31     0.02  -0.02  -0.15
    13   8     0.00  -0.00   0.01     0.00   0.00   0.00    -0.00   0.00  -0.00
    14   1    -0.01  -0.01  -0.00    -0.01  -0.01   0.00     0.00   0.00  -0.00
    15   8    -0.01  -0.00   0.00     0.00  -0.00   0.00     0.00   0.00  -0.00
                     19                     20                     21
                      A                      A                      A
 Frequencies --   1018.4149              1053.7480              1103.8916
 Red. masses --      5.7737                 2.6388                 2.3215
 Frc consts  --      3.5282                 1.7264                 1.6667
 IR Inten    --      1.6976                 8.8432                27.9304
 Raman Activ --     19.5076                13.5446                 1.2859
 Depolar (P) --      0.1037                 0.1113                 0.4694
 Depolar (U) --      0.1880                 0.2004                 0.6389
  Atom  AN      X      Y      Z        X      Y      Z        X      Y      Z
     1   6    -0.17   0.35  -0.02    -0.07  -0.03   0.01     0.06  -0.08   0.01
     2   6    -0.03  -0.07  -0.01     0.05   0.22  -0.03    -0.09  -0.05   0.01
     3   6    -0.03   0.07  -0.03     0.03  -0.21   0.02    -0.00  -0.05   0.00
     4   1     0.05  -0.08   0.12    -0.23   0.41  -0.01    -0.45   0.15  -0.01
     5   6     0.03   0.00  -0.01    -0.08  -0.01   0.00     0.14   0.05  -0.02
     6   6     0.35  -0.01   0.01     0.16  -0.02  -0.00     0.05   0.07  -0.01
     7   1    -0.13   0.38  -0.10    -0.39  -0.22  -0.03     0.14  -0.05  -0.01
     8   6     0.01   0.01   0.01    -0.03  -0.03  -0.01     0.12   0.11   0.04
     9   6    -0.18  -0.34   0.06    -0.05   0.06  -0.00    -0.08  -0.01   0.01
    10   1     0.02   0.10   0.10    -0.31  -0.41   0.08    -0.03  -0.06   0.03
    11   1     0.36  -0.04  -0.11     0.18  -0.07   0.00     0.06   0.43  -0.05
    12   1    -0.05  -0.45  -0.08    -0.29   0.17  -0.07    -0.49   0.22  -0.10
    13   8    -0.00   0.01   0.00     0.02  -0.02  -0.00    -0.05   0.06   0.01
    14   1     0.01  -0.01   0.04     0.02   0.03   0.02    -0.25  -0.31  -0.01
    15   8    -0.00  -0.01  -0.00     0.03   0.04   0.01    -0.05  -0.11  -0.04
                     22                     23                     24
                      A                      A                      A
 Frequencies --   1123.1131              1195.8693              1215.6386
 Red. masses --      1.9912                 1.1040                 1.1554
 Frc consts  --      1.4798                 0.9302                 1.0060
 IR Inten    --      2.8730                 0.1952                10.1925
 Raman Activ --      1.0827                 6.4466                 4.0044
 Depolar (P) --      0.2220                 0.7314                 0.7481
 Depolar (U) --      0.3634                 0.8449                 0.8559
  Atom  AN      X      Y      Z        X      Y      Z        X      Y      Z
     1   6     0.09  -0.01  -0.01    -0.01  -0.01   0.00    -0.04  -0.02   0.01
     2   6    -0.01  -0.01   0.01     0.04  -0.03   0.00     0.04  -0.02   0.00
     3   6     0.09  -0.08   0.01    -0.03  -0.02   0.00     0.06   0.02  -0.00
     4   1    -0.11   0.04  -0.02     0.46  -0.28   0.03     0.36  -0.21   0.02
     5   6    -0.15   0.04   0.00     0.00  -0.00   0.00    -0.02   0.01  -0.00
     6   6    -0.02   0.07  -0.01     0.00   0.07  -0.01     0.01  -0.01   0.00
     7   1     0.61   0.30   0.03    -0.20  -0.12   0.00    -0.39  -0.22   0.01
     8   6    -0.06  -0.07  -0.01    -0.01  -0.01  -0.00    -0.00  -0.00   0.00
     9   6    -0.10  -0.05   0.01    -0.00  -0.00   0.00    -0.06   0.03   0.00
    10   1     0.37   0.06  -0.00    -0.36  -0.20   0.02     0.52   0.27  -0.03
    11   1    -0.01   0.48  -0.06     0.01   0.67  -0.08     0.01  -0.06   0.01
    12   1    -0.23  -0.00  -0.03     0.08  -0.05   0.01    -0.42   0.23  -0.06
    13   8     0.04  -0.05  -0.01     0.00  -0.00  -0.00    -0.00   0.01   0.00
    14   1     0.07   0.10   0.04     0.03   0.03  -0.00    -0.13  -0.12  -0.00
    15   8     0.04   0.07   0.02    -0.00   0.00   0.00     0.02  -0.00  -0.00
                     25                     26                     27
                      A                      A                      A
 Frequencies --   1223.9724              1334.1073              1355.2132
 Red. masses --      1.6222                 2.4990                 2.3341
 Frc consts  --      1.4318                 2.6206                 2.5258
 IR Inten    --     20.7711               374.3077               143.6621
 Raman Activ --     21.7508                17.7422                 5.9158
 Depolar (P) --      0.1235                 0.3951                 0.3719
 Depolar (U) --      0.2199                 0.5664                 0.5422
  Atom  AN      X      Y      Z        X      Y      Z        X      Y      Z
     1   6     0.03  -0.00   0.00    -0.04  -0.05   0.01    -0.00  -0.03   0.00
     2   6    -0.04  -0.04   0.00     0.06  -0.01  -0.00     0.08  -0.09   0.01
     3   6    -0.02   0.03  -0.00    -0.01  -0.06   0.01    -0.11  -0.06   0.01
     4   1    -0.15   0.02   0.01    -0.05   0.06  -0.00    -0.46   0.23  -0.01
     5   6     0.17  -0.00   0.01    -0.12   0.14  -0.01     0.06   0.22  -0.02
     6   6     0.02  -0.00  -0.00     0.00   0.01  -0.00    -0.00   0.05  -0.01
     7   1    -0.16  -0.12   0.00    -0.19  -0.13   0.01    -0.40  -0.25   0.02
     8   6    -0.10  -0.05  -0.03     0.20   0.13   0.03    -0.12  -0.09  -0.00
     9   6    -0.02   0.01  -0.00    -0.03  -0.01   0.00     0.05  -0.05   0.00
    10   1     0.02   0.06   0.00     0.34   0.12  -0.02     0.27   0.14  -0.03
    11   1     0.01   0.05  -0.01     0.00   0.03  -0.00    -0.00   0.12  -0.01
    12   1    -0.30   0.16  -0.07     0.38  -0.25   0.02     0.32  -0.21   0.05
    13   8     0.02  -0.04  -0.01     0.01  -0.07  -0.02     0.02   0.02   0.00
    14   1     0.64   0.57   0.16     0.53   0.43   0.11    -0.29  -0.21  -0.09
    15   8    -0.05   0.04   0.02    -0.12  -0.06  -0.01     0.05   0.04   0.01
                     28                     29                     30
                      A                      A                      A
 Frequencies --   1369.2182              1495.3274              1542.3528
 Red. masses --      2.4655                 2.2230                 2.1833
 Frc consts  --      2.7233                 2.9286                 3.0601
 IR Inten    --     11.3745                16.2267                 3.3417
 Raman Activ --      0.7436                 0.8787                 0.6462
 Depolar (P) --      0.7457                 0.5370                 0.2993
 Depolar (U) --      0.8544                 0.6988                 0.4607
  Atom  AN      X      Y      Z        X      Y      Z        X      Y      Z
     1   6    -0.18  -0.08   0.01    -0.09   0.06  -0.00    -0.07  -0.10   0.01
     2   6     0.10  -0.04   0.00     0.14   0.01  -0.00    -0.11   0.11  -0.01
     3   6    -0.10  -0.05   0.01    -0.15  -0.00   0.00    -0.10  -0.10   0.01
     4   1     0.19  -0.10   0.01    -0.29   0.28  -0.03     0.44  -0.21   0.01
     5   6     0.00   0.06  -0.01    -0.01  -0.16   0.01     0.14   0.01  -0.00
     6   6     0.01   0.18  -0.02     0.00  -0.13   0.01     0.10  -0.01  -0.00
     7   1     0.45   0.29  -0.02     0.11   0.19  -0.02     0.40   0.15  -0.02
     8   6     0.00   0.01  -0.00     0.03   0.02  -0.01    -0.03  -0.02  -0.00
     9   6     0.16  -0.08   0.01     0.08   0.07  -0.01    -0.07   0.09  -0.01
    10   1    -0.12  -0.06   0.00     0.36   0.29  -0.04     0.42   0.18  -0.03
    11   1     0.00  -0.40   0.05     0.02   0.64  -0.08     0.12  -0.00  -0.00
    12   1    -0.50   0.30  -0.07    -0.08   0.18  -0.03     0.45  -0.19   0.04
    13   8     0.01  -0.01  -0.00    -0.01   0.01   0.00    -0.00   0.01   0.00
    14   1     0.09   0.07   0.05     0.04   0.02   0.01    -0.04  -0.02  -0.03
    15   8    -0.01  -0.00   0.00    -0.00  -0.00   0.00     0.00   0.00   0.00
                     31                     32                     33
                      A                      A                      A
 Frequencies --   1641.3310              1661.2255              1851.7541
 Red. masses --      5.4637                 5.4763                10.5762
 Frc consts  --      8.6722                 8.9042                21.3672
 IR Inten    --      3.3569                10.6081               269.1208
 Raman Activ --      5.6022                50.9933                55.1209
 Depolar (P) --      0.7090                 0.5603                 0.2516
 Depolar (U) --      0.8297                 0.7182                 0.4020
  Atom  AN      X      Y      Z        X      Y      Z        X      Y      Z
     1   6     0.10   0.18  -0.02     0.30   0.08  -0.01     0.01   0.03  -0.00
     2   6     0.06  -0.20   0.02    -0.28   0.07  -0.00    -0.00  -0.02   0.00
     3   6    -0.06  -0.21   0.03    -0.27  -0.07   0.01    -0.02  -0.01   0.00
     4   1    -0.23  -0.06   0.01     0.24  -0.25   0.02    -0.04   0.01  -0.00
     5   6     0.00  -0.29   0.03    -0.20  -0.00   0.00     0.04  -0.07  -0.00
     6   6     0.01   0.36  -0.04     0.14   0.01  -0.00     0.00   0.01  -0.00
     7   1    -0.26  -0.02   0.00    -0.30  -0.27   0.03    -0.07   0.00  -0.01
     8   6     0.03  -0.01  -0.01     0.02   0.00   0.00    -0.39   0.62   0.16
     9   6    -0.12   0.19  -0.02     0.28  -0.08   0.01     0.01   0.02  -0.00
    10   1     0.24  -0.06   0.00     0.26   0.23  -0.03     0.02   0.01  -0.00
    11   1    -0.01  -0.52   0.06     0.16  -0.02  -0.00     0.00  -0.02  -0.00
    12   1     0.36  -0.07   0.03    -0.30   0.26  -0.04     0.03   0.02   0.00
    13   8    -0.03   0.03   0.01     0.00  -0.01  -0.00     0.24  -0.39  -0.10
    14   1     0.02   0.02  -0.02     0.03   0.02   0.02    -0.34  -0.29  -0.05
    15   8     0.00  -0.00   0.00    -0.00   0.00  -0.00     0.04  -0.03  -0.01
                     34                     35                     36
                      A                      A                      A
 Frequencies --   3172.0172              3191.3166              3202.7590
 Red. masses --      1.0879                 1.0869                 1.0915
 Frc consts  --      6.4495                 6.5222                 6.5967
 IR Inten    --     10.9420                 1.3175                19.0450
 Raman Activ --     53.2344                76.5320                77.6326
 Depolar (P) --      0.4378                 0.6919                 0.7446
 Depolar (U) --      0.6090                 0.8179                 0.8536
  Atom  AN      X      Y      Z        X      Y      Z        X      Y      Z
     1   6     0.00   0.00  -0.00     0.00  -0.01   0.00    -0.01   0.01  -0.00
     2   6    -0.00  -0.00   0.00     0.02   0.04  -0.00    -0.03  -0.05   0.01
     3   6    -0.01   0.02  -0.00     0.02  -0.03   0.00     0.03  -0.05   0.01
     4   1     0.02   0.04  -0.00    -0.28  -0.46   0.06     0.35   0.59  -0.07
     5   6    -0.00   0.00  -0.00    -0.00   0.00  -0.00    -0.00   0.00  -0.00
     6   6     0.01  -0.00  -0.00    -0.06   0.00   0.00    -0.01   0.00  -0.00
     7   1     0.00  -0.01   0.00    -0.06   0.10  -0.01     0.09  -0.16   0.01
     8   6    -0.00  -0.00  -0.00    -0.00  -0.00  -0.00    -0.00  -0.00  -0.00
     9   6    -0.04  -0.07   0.01    -0.01  -0.01   0.00    -0.01  -0.01   0.00
    10   1     0.13  -0.25   0.03    -0.18   0.32  -0.04    -0.32   0.57  -0.07
    11   1    -0.08   0.00   0.00     0.71  -0.01  -0.01     0.17  -0.01  -0.00
    12   1     0.47   0.81  -0.14     0.10   0.17  -0.03     0.09   0.15  -0.02
    13   8     0.00   0.00   0.00     0.00   0.00   0.00     0.00  -0.00  -0.00
    14   1     0.00   0.00   0.00    -0.00   0.00   0.00    -0.00   0.00   0.00
    15   8     0.00   0.00  -0.00     0.00   0.00  -0.00     0.00   0.00  -0.00
                     37                     38                     39
                      A                      A                      A
 Frequencies --   3213.2572              3228.4013              3740.8220
 Red. masses --      1.0963                 1.0936                 1.0653
 Frc consts  --      6.6692                 6.7156                 8.7830
 IR Inten    --     16.3192                 3.3090                22.5999
 Raman Activ --    179.7223               113.0292                42.8484
 Depolar (P) --      0.1170                 0.1548                 0.2030
 Depolar (U) --      0.2095                 0.2680                 0.3375
  Atom  AN      X      Y      Z        X      Y      Z        X      Y      Z
     1   6    -0.01   0.02  -0.00     0.04  -0.07   0.01    -0.00  -0.00   0.00
     2   6    -0.01  -0.03   0.00    -0.02  -0.02   0.00     0.00  -0.00  -0.00
     3   6    -0.02   0.05  -0.01    -0.00   0.01  -0.00     0.00  -0.00  -0.00
     4   1     0.19   0.32  -0.04     0.15   0.25  -0.03     0.00   0.00  -0.00
     5   6     0.00  -0.00   0.00     0.00   0.00  -0.00     0.00   0.00   0.00
     6   6    -0.06   0.00   0.00    -0.01   0.00  -0.00     0.00   0.00   0.00
     7   1     0.11  -0.20   0.02    -0.47   0.82  -0.07    -0.00   0.00   0.00
     8   6     0.00   0.00   0.00     0.00  -0.00  -0.00     0.00  -0.00  -0.00
     9   6     0.01   0.01  -0.00     0.00   0.00  -0.00     0.00   0.00  -0.00
    10   1     0.28  -0.51   0.06     0.03  -0.05   0.01     0.00  -0.00  -0.00
    11   1     0.66  -0.01  -0.01     0.10  -0.00  -0.00    -0.00  -0.00   0.00
    12   1    -0.07  -0.11   0.02    -0.01  -0.01   0.00     0.00  -0.00   0.00
    13   8    -0.00  -0.00   0.00    -0.00   0.00   0.00    -0.00   0.00   0.00
    14   1     0.00  -0.00  -0.00     0.00  -0.00   0.00    -0.61   0.70   0.36
    15   8    -0.00  -0.00   0.00    -0.00   0.00  -0.00     0.04  -0.04  -0.02

 -------------------
 - Thermochemistry -
 -------------------
 Temperature   298.150 Kelvin.  Pressure   1.00000 Atm.
 Atom     1 has atomic number  6 and mass  12.00000
 Atom     2 has atomic number  6 and mass  12.00000
 Atom     3 has atomic number  6 and mass  12.00000
 Atom     4 has atomic number  1 and mass   1.00783
 Atom     5 has atomic number  6 and mass  12.00000
 Atom     6 has atomic number  6 and mass  12.00000
 Atom     7 has atomic number  1 and mass   1.00783
 Atom     8 has atomic number  6 and mass  12.00000
 Atom     9 has atomic number  6 and mass  12.00000
 Atom    10 has atomic number  1 and mass   1.00783
 Atom    11 has atomic number  1 and mass   1.00783
 Atom    12 has atomic number  1 and mass   1.00783
 Atom    13 has atomic number  8 and mass  15.99491
 Atom    14 has atomic number  1 and mass   1.00783
 Atom    15 has atomic number  8 and mass  15.99491
 Molecular mass:   122.03678 amu.
 Principal axes and moments of inertia in atomic units:
                           1         2         3
     Eigenvalues --   471.409571491.130581932.06150
           X            0.99995   0.01016   0.00226
           Y           -0.01014   0.99991  -0.00878
           Z           -0.00235   0.00876   0.99996
 This molecule is an asymmetric top.
 Rotational symmetry number  1.
 Warning -- assumption of classical behavior for rotation
           may cause significant error
 Rotational temperatures (Kelvin)      0.18373     0.05809     0.04483
 Rotational constants (GHZ):           3.82839     1.21032     0.93410
 Zero-point vibrational energy     303261.4 (Joules/Mol)
                                   72.48122 (Kcal/Mol)
 Warning -- explicit consideration of   8 degrees of freedom as
           vibrations may cause significant error
 Vibrational temperatures:    100.51   221.80   312.86   541.19   598.51
          (Kelvin)            604.51   726.33   751.21   909.88   936.05
                             1004.63  1034.72  1129.83  1161.47  1242.62
                             1354.22  1410.17  1451.68  1465.27  1516.11
                             1588.25  1615.91  1720.59  1749.03  1761.02
                             1919.48  1949.85  1970.00  2151.44  2219.10
                             2361.51  2390.13  2664.26  4563.83  4591.59
                             4608.06  4623.16  4644.95  5382.21
 
 Zero-point correction=                           0.115506 (Hartree/Particle)
 Thermal correction to Energy=                    0.122690
 Thermal correction to Enthalpy=                  0.123634
 Thermal correction to Gibbs Free Energy=         0.083426
 Sum of electronic and zero-point Energies=           -420.695068
 Sum of electronic and thermal Energies=              -420.687885
 Sum of electronic and thermal Enthalpies=            -420.686940
 Sum of electronic and thermal Free Energies=         -420.727148
 
                     E (Thermal)             CV                S
                      KCal/Mol        Cal/Mol-Kelvin    Cal/Mol-Kelvin
 Total                   76.989             27.492             84.623
 Electronic               0.000              0.000              0.000
 Translational            0.889              2.981             40.312
 Rotational               0.889              2.981             28.698
 Vibrational             75.211             21.531             15.614
 Vibration     1          0.598              1.968              4.157
 Vibration     2          0.620              1.898              2.620
 Vibration     3          0.646              1.814              1.980
 Vibration     4          0.747              1.521              1.055
 Vibration     5          0.779              1.436              0.906
 Vibration     6          0.783              1.426              0.891
 Vibration     7          0.860              1.239              0.646
 Vibration     8          0.877              1.201              0.605
                       Q            Log10(Q)             Ln(Q)
 Total Bot       0.423214D-38        -38.373440        -88.358110
 Total V=0       0.569728D+15         14.755668         33.976180
 Vib (Bot)       0.191451D-51        -51.717943       -119.084964
 Vib (Bot)    1  0.295223D+01          0.470150          1.082560
 Vib (Bot)    2  0.131370D+01          0.118497          0.272848
 Vib (Bot)    3  0.910617D+00         -0.040664         -0.093633
 Vib (Bot)    4  0.481971D+00         -0.316979         -0.729872
 Vib (Bot)    5  0.423400D+00         -0.373249         -0.859437
 Vib (Bot)    6  0.417868D+00         -0.378961         -0.872589
 Vib (Bot)    7  0.324166D+00         -0.489233         -1.126501
 Vib (Bot)    8  0.308552D+00         -0.510672         -1.175865
 Vib (V=0)       0.257730D+02          1.411164          3.249326
 Vib (V=0)    1  0.349427D+01          0.543356          1.251124
 Vib (V=0)    2  0.190564D+01          0.280040          0.644815
 Vib (V=0)    3  0.153886D+01          0.187198          0.431040
 Vib (V=0)    4  0.119448D+01          0.077177          0.177707
 Vib (V=0)    5  0.115519D+01          0.062652          0.144261
 Vib (V=0)    6  0.115162D+01          0.061311          0.141173
 Vib (V=0)    7  0.109589D+01          0.039766          0.091566
 Vib (V=0)    8  0.108754D+01          0.036446          0.083919
 Electronic      0.100000D+01          0.000000          0.000000
 Translational   0.529895D+08          7.724190         17.785605
 Rotational      0.417170D+06          5.620313         12.941249
 
                                            C7H6O2 | Equilibrium Geometry | B3LYP
 /6-31G(d)
                                                             IR Spectrum
 
      3              33333                                            1     11  1 1  111  111 11111                                  
      7              22211                                            8     66  5 4  333  221 110009 9 8 87 7666  55 44 3    2 1     
      4              21097                                            5     64  4 9  653  219 205108 4 6 08 1953  20 21 7    1 5  7  
      1              83312                                            2     11  2 5  954  466 344890 1 4 75 9812  25 06 6    7 4  0  
 
      X              XXXXX                                            X     XX  X X  XXX  XXX XXXXXX X X XX XXXX  XX XX X    X X  X  
                                                                      X               XX                    X      X                 
                                                                      X               XX                    X      X                 
                                                                      X               XX                    X      X                 
                                                                      X               XX                           X                 
                                                                      X               XX                                             
                                                                      X               XX                                             
                                                                      X               XX                                             
                                                                      X                X                                             
                                                                      X                X                                             
                                                                      X                X                                             
                                                                      X                X                                             
                                                                      X                X                                             
                                                                      X                X                                             
                                                                                       X                                             
                                                                                       X                                             
                                                                                       X                                             
                                                                                       X                                             
                                                                                       X                                             
                                                                                       X                                             
 
 
                                            C7H6O2 | Equilibrium Geometry | B3LYP
 /6-31G(d)
                                                            Raman Spectrum
 
      3              33333                                            1     11  1 1  111  111 11111                                  
      7              22211                                            8     66  5 4  333  221 110009 9 8 87 7666  55 44 3    2 1     
      4              21097                                            5     64  4 9  653  219 205108 4 6 08 1953  20 21 7    1 5  7  
      1              83312                                            2     11  2 5  954  466 344890 1 4 75 9812  25 06 6    7 4  0  
 
      X              XXXXX                                            X     XX  X X  XXX  XXX XXXXXX X X XX XXXX  XX XX X    X X  X  
      X              XXXXX                                            X     X          X  X     XX                                   
      X              XXXXX                                            X     X                                                        
      X              XXXXX                                            X     X                                                        
      X              XXXXX                                            X     X                                                        
                     XXXXX                                            X     X                                                        
                     XXXX                                                                                                            
                     XXXX                                                                                                            
                     XXXX                                                                                                            
                     XX                                                                                                              
                     XX                                                                                                              
                     XX                                                                                                              
                     XX                                                                                                              
                      X                                                                                                              
                      X                                                                                                              
                      X                                                                                                              
                      X                                                                                                              
                      X                                                                                                              
                      X                                                                                                              
                      X                                                                                                              
 
 ***** Axes restored to original set *****
 -------------------------------------------------------------------
 Center     Atomic                   Forces (Hartrees/Bohr)
 Number     Number              X              Y              Z
 -------------------------------------------------------------------
      1        6           0.000016220    0.000011679   -0.000005120
      2        6           0.000007134   -0.000015113    0.000001023
      3        6           0.000005072   -0.000006041   -0.000000621
      4        1          -0.000001588   -0.000002050   -0.000001027
      5        6          -0.000049726    0.000019199    0.000003376
      6        6           0.000004649    0.000017817    0.000000221
      7        1           0.000000159    0.000007361    0.000000287
      8        6           0.000046303    0.000005864    0.000000055
      9        6           0.000008350   -0.000025436    0.000003364
     10        1          -0.000003789   -0.000002740    0.000002029
     11        1           0.000000309    0.000000219    0.000000197
     12        1          -0.000005077    0.000002320   -0.000000579
     13        8          -0.000018960   -0.000014050    0.000002860
     14        1           0.000009497    0.000005835    0.000005916
     15        8          -0.000018553   -0.000004862   -0.000011982
 -------------------------------------------------------------------
 Cartesian Forces:  Max     0.000049726 RMS     0.000013517
 FormGI is forming the generalized inverse of G from B-inverse, IUseBI=4.
 Leave Link  716 at Mon Sep 21 11:04:57 2026, MaxMem=  3758096384 cpu:               0.9 elap:               0.2
 (Enter /opt/software/gaussian/16RevA.03/g16/l103.exe)

 GradGradGradGradGradGradGradGradGradGradGradGradGradGradGradGradGradGrad
 Berny optimization.
 Red2BG is reusing G-inverse.
 Internal  Forces:  Max     0.000041787 RMS     0.000008910
 Search for a local minimum.
 Step number   1 out of a maximum of    2
 All quantities printed in internal units (Hartrees-Bohrs-Radians)
 Second derivative matrix not updated -- analytic derivatives used.
 ITU=  0
     Eigenvalues ---    0.00491   0.01206   0.01542   0.01747   0.01785
     Eigenvalues ---    0.02172   0.02383   0.02548   0.02719   0.02774
     Eigenvalues ---    0.02810   0.06539   0.11070   0.11568   0.12045
     Eigenvalues ---    0.12557   0.12932   0.16604   0.18733   0.19212
     Eigenvalues ---    0.19624   0.20710   0.22661   0.25889   0.29675
     Eigenvalues ---    0.34780   0.35895   0.36109   0.36281   0.36342
     Eigenvalues ---    0.37055   0.41280   0.42200   0.42937   0.47038
     Eigenvalues ---    0.47398   0.50835   0.51472   0.89847
 Angle between quadratic step and forces=  66.04 degrees.
 Linear search not attempted -- first point.
 Iteration  1 RMS(Cart)=  0.00012654 RMS(Int)=  0.00000004
 Iteration  2 RMS(Cart)=  0.00000005 RMS(Int)=  0.00000000
 ITry= 1 IFail=0 DXMaxC= 5.48D-04 DCOld= 1.00D+10 DXMaxT= 3.00D-01 DXLimC= 3.00D+00 Rises=F
 Variable       Old X    -DE/DX   Delta X   Delta X   Delta X     New X
                                 (Linear)    (Quad)   (Total)
    R1        2.63085   0.00001   0.00000   0.00003   0.00003   2.63088
    R2        2.64879  -0.00002   0.00000  -0.00006  -0.00006   2.64873
    R3        2.05030   0.00001   0.00000   0.00001   0.00001   2.05031
    R4        2.05290   0.00000   0.00000   0.00001   0.00001   2.05291
    R5        2.64135  -0.00001   0.00000  -0.00003  -0.00003   2.64132
    R6        2.63772  -0.00001   0.00000  -0.00000  -0.00000   2.63772
    R7        2.63561  -0.00000   0.00000  -0.00002  -0.00002   2.63559
    R8        2.05276   0.00000   0.00000  -0.00000  -0.00000   2.05276
    R9        2.83451   0.00000   0.00000   0.00002   0.00002   2.83454
   R10        2.65011   0.00002   0.00000   0.00006   0.00006   2.65018
   R11        2.05326  -0.00000   0.00000   0.00000   0.00000   2.05326
   R12        2.28288  -0.00000   0.00000   0.00001   0.00001   2.28289
   R13        2.57406  -0.00001   0.00000  -0.00007  -0.00007   2.57399
   R14        2.05617  -0.00001   0.00000  -0.00001  -0.00001   2.05616
   R15        1.83454  -0.00001   0.00000  -0.00001  -0.00001   1.83453
    A1        2.09899  -0.00001   0.00000  -0.00005  -0.00005   2.09894
    A2        2.11690   0.00001   0.00000   0.00005   0.00005   2.11695
    A3        2.06730   0.00000   0.00000  -0.00000  -0.00000   2.06729
    A4        2.09171   0.00000   0.00000   0.00001   0.00001   2.09172
    A5        2.09590   0.00000   0.00000   0.00001   0.00001   2.09591
    A6        2.09557  -0.00000   0.00000  -0.00002  -0.00002   2.09555
    A7        2.09384  -0.00001   0.00000  -0.00005  -0.00005   2.09378
    A8        2.09822   0.00000   0.00000  -0.00002  -0.00002   2.09820
    A9        2.09110   0.00001   0.00000   0.00007   0.00007   2.09117
   A10        2.05260  -0.00001   0.00000  -0.00003  -0.00003   2.05257
   A11        2.08346   0.00000   0.00000   0.00004   0.00004   2.08350
   A12        2.14680   0.00001   0.00000  -0.00000  -0.00000   2.14680
   A13        2.09439   0.00001   0.00000   0.00005   0.00005   2.09444
   A14        2.09534  -0.00000   0.00000  -0.00003  -0.00003   2.09531
   A15        2.09342  -0.00001   0.00000  -0.00002  -0.00002   2.09340
   A16        2.15420  -0.00004   0.00000  -0.00017  -0.00017   2.15403
   A17        2.03734   0.00003   0.00000   0.00012   0.00012   2.03747
   A18        2.09164   0.00001   0.00000   0.00005   0.00005   2.09168
   A19        2.09952  -0.00000   0.00000   0.00000   0.00000   2.09953
   A20        2.07502   0.00000   0.00000   0.00004   0.00004   2.07505
   A21        2.10775  -0.00000   0.00000  -0.00004  -0.00004   2.10771
   A22        1.92006   0.00002   0.00000   0.00011   0.00011   1.92017
    D1       -3.13011  -0.00000   0.00000   0.00001   0.00001  -3.13009
    D2        0.01563  -0.00000   0.00000   0.00001   0.00001   0.01563
    D3        0.00979   0.00000   0.00000   0.00005   0.00005   0.00985
    D4       -3.12766   0.00000   0.00000   0.00005   0.00005  -3.12761
    D5       -3.14086   0.00000   0.00000   0.00000   0.00000  -3.14086
    D6       -0.02540   0.00000   0.00000   0.00002   0.00002  -0.02537
    D7        0.00238  -0.00000   0.00000  -0.00004  -0.00004   0.00234
    D8        3.11784  -0.00000   0.00000  -0.00002  -0.00002   3.11782
    D9        0.00374  -0.00000   0.00000  -0.00002  -0.00002   0.00371
   D10        3.13679  -0.00000   0.00000  -0.00001  -0.00001   3.13678
   D11       -3.13371  -0.00000   0.00000  -0.00003  -0.00003  -3.13373
   D12       -0.00065  -0.00000   0.00000  -0.00002  -0.00002  -0.00067
   D13       -0.01309   0.00000   0.00000   0.00000   0.00000  -0.01309
   D14        3.13703   0.00000   0.00000  -0.00001  -0.00001   3.13702
   D15        3.12020  -0.00000   0.00000  -0.00001  -0.00001   3.12018
   D16       -0.01287  -0.00000   0.00000  -0.00002  -0.00002  -0.01289
   D17        0.00313   0.00000   0.00000   0.00003   0.00003   0.00316
   D18        3.09961   0.00000   0.00000   0.00005   0.00005   3.09966
   D19       -3.13019   0.00000   0.00000   0.00004   0.00004  -3.13015
   D20       -0.03371   0.00000   0.00000   0.00006   0.00006  -0.03365
   D21        0.36143  -0.00000   0.00000   0.00017   0.00017   0.36160
   D22       -2.77941   0.00001   0.00000   0.00034   0.00034  -2.77908
   D23       -2.75301  -0.00000   0.00000   0.00015   0.00015  -2.75286
   D24        0.38933   0.00001   0.00000   0.00031   0.00031   0.38965
   D25        0.01602  -0.00000   0.00000  -0.00004  -0.00004   0.01598
   D26       -3.07960  -0.00000   0.00000  -0.00006  -0.00006  -3.07967
   D27        3.13000  -0.00000   0.00000  -0.00002  -0.00002   3.12998
   D28        0.03438  -0.00000   0.00000  -0.00004  -0.00004   0.03434
   D29        0.18011  -0.00001   0.00000  -0.00069  -0.00069   0.17943
   D30       -2.96076  -0.00000   0.00000  -0.00053  -0.00053  -2.96128
         Item               Value     Threshold  Converged?
 Maximum Force            0.000042     0.000450     YES
 RMS     Force            0.000009     0.000300     YES
 Maximum Displacement     0.000548     0.001800     YES
 RMS     Displacement     0.000127     0.001200     YES
 Predicted change in Energy=-1.576167D-08
 Optimization completed.
    -- Stationary point found.
                           ----------------------------
                           !   Optimized Parameters   !
                           ! (Angstroms and Degrees)  !
 --------------------------                            --------------------------
 ! Name  Definition              Value          Derivative Info.                !
 --------------------------------------------------------------------------------
 ! R1    R(1,2)                  1.3922         -DE/DX =    0.0                 !
 ! R2    R(1,5)                  1.4017         -DE/DX =    0.0                 !
 ! R3    R(1,7)                  1.085          -DE/DX =    0.0                 !
 ! R4    R(2,4)                  1.0863         -DE/DX =    0.0                 !
 ! R5    R(2,6)                  1.3977         -DE/DX =    0.0                 !
 ! R6    R(3,6)                  1.3958         -DE/DX =    0.0                 !
 ! R7    R(3,9)                  1.3947         -DE/DX =    0.0                 !
 ! R8    R(3,10)                 1.0863         -DE/DX =    0.0                 !
 ! R9    R(5,8)                  1.5            -DE/DX =    0.0                 !
 ! R10   R(5,9)                  1.4024         -DE/DX =    0.0                 !
 ! R11   R(6,11)                 1.0865         -DE/DX =    0.0                 !
 ! R12   R(8,13)                 1.208          -DE/DX =    0.0                 !
 ! R13   R(8,15)                 1.3621         -DE/DX =    0.0                 !
 ! R14   R(9,12)                 1.0881         -DE/DX =    0.0                 !
 ! R15   R(14,15)                0.9708         -DE/DX =    0.0                 !
 ! A1    A(2,1,5)              120.263          -DE/DX =    0.0                 !
 ! A2    A(2,1,7)              121.2896         -DE/DX =    0.0                 !
 ! A3    A(5,1,7)              118.4473         -DE/DX =    0.0                 !
 ! A4    A(1,2,4)              119.8462         -DE/DX =    0.0                 !
 ! A5    A(1,2,6)              120.0861         -DE/DX =    0.0                 !
 ! A6    A(4,2,6)              120.0673         -DE/DX =    0.0                 !
 ! A7    A(6,3,9)              119.968          -DE/DX =    0.0                 !
 ! A8    A(6,3,10)             120.2192         -DE/DX =    0.0                 !
 ! A9    A(9,3,10)             119.8111         -DE/DX =    0.0                 !
 ! A10   A(1,5,8)              117.6055         -DE/DX =    0.0                 !
 ! A11   A(1,5,9)              119.3737         -DE/DX =    0.0                 !
 ! A12   A(8,5,9)              123.0029         -DE/DX =    0.0                 !
 ! A13   A(2,6,3)              119.9999         -DE/DX =    0.0                 !
 ! A14   A(2,6,11)             120.054          -DE/DX =    0.0                 !
 ! A15   A(3,6,11)             119.9444         -DE/DX =    0.0                 !
 ! A16   A(5,8,13)             123.4267         -DE/DX =    0.0                 !
 ! A17   A(5,8,15)             116.7312         -DE/DX =    0.0                 !
 ! A18   A(13,8,15)            119.8421         -DE/DX =    0.0                 !
 ! A19   A(3,9,5)              120.2937         -DE/DX =    0.0                 !
 ! A20   A(3,9,12)             118.8897         -DE/DX =    0.0                 !
 ! A21   A(5,9,12)             120.7653         -DE/DX =    0.0                 !
 ! A22   A(8,15,14)            110.0114         -DE/DX =    0.0                 !
 ! D1    D(5,1,2,4)           -179.3419         -DE/DX =    0.0                 !
 ! D2    D(5,1,2,6)              0.8953         -DE/DX =    0.0                 !
 ! D3    D(7,1,2,4)              0.5612         -DE/DX =    0.0                 !
 ! D4    D(7,1,2,6)           -179.2017         -DE/DX =    0.0                 !
 ! D5    D(2,1,5,8)           -179.9581         -DE/DX =    0.0                 !
 ! D6    D(2,1,5,9)             -1.4551         -DE/DX =    0.0                 !
 ! D7    D(7,1,5,8)              0.1362         -DE/DX =    0.0                 !
 ! D8    D(7,1,5,9)            178.6392         -DE/DX =    0.0                 !
 ! D9    D(1,2,6,3)              0.2141         -DE/DX =    0.0                 !
 ! D10   D(1,2,6,11)           179.7248         -DE/DX =    0.0                 !
 ! D11   D(4,2,6,3)           -179.5483         -DE/DX =    0.0                 !
 ! D12   D(4,2,6,11)            -0.0375         -DE/DX =    0.0                 !
 ! D13   D(9,3,6,2)             -0.7501         -DE/DX =    0.0                 !
 ! D14   D(9,3,6,11)           179.7386         -DE/DX =    0.0                 !
 ! D15   D(10,3,6,2)           178.7741         -DE/DX =    0.0                 !
 ! D16   D(10,3,6,11)           -0.7372         -DE/DX =    0.0                 !
 ! D17   D(6,3,9,5)              0.1794         -DE/DX =    0.0                 !
 ! D18   D(6,3,9,12)           177.5945         -DE/DX =    0.0                 !
 ! D19   D(10,3,9,5)          -179.3467         -DE/DX =    0.0                 !
 ! D20   D(10,3,9,12)           -1.9316         -DE/DX =    0.0                 !
 ! D21   D(1,5,8,13)            20.7087         -DE/DX =    0.0                 !
 ! D22   D(1,5,8,15)          -159.2485         -DE/DX =    0.0                 !
 ! D23   D(9,5,8,13)          -157.7357         -DE/DX =    0.0                 !
 ! D24   D(9,5,8,15)            22.3071         -DE/DX =    0.0                 !
 ! D25   D(1,5,9,3)              0.9178         -DE/DX =    0.0                 !
 ! D26   D(1,5,9,12)          -176.4483         -DE/DX =    0.0                 !
 ! D27   D(8,5,9,3)            179.3359         -DE/DX =    0.0                 !
 ! D28   D(8,5,9,12)             1.9698         -DE/DX =    0.0                 !
 ! D29   D(5,8,15,14)           10.3198         -DE/DX =    0.0                 !
 ! D30   D(13,8,15,14)        -169.639          -DE/DX =    0.0                 !
 --------------------------------------------------------------------------------
 GradGradGradGradGradGradGradGradGradGradGradGradGradGradGradGradGradGrad

 Leave Link  103 at Mon Sep 21 11:04:58 2026, MaxMem=  3758096384 cpu:               0.5 elap:               0.1
 (Enter /opt/software/gaussian/16RevA.03/g16/l9999.exe)

 ----------------------------------------------------------------------

 Electric dipole moment (input orientation):
 (Debye = 10**-18 statcoulomb cm , SI units = C m)
                  (au)            (Debye)         (10**-30 SI)
   Tot        0.188124D+01      0.478164D+01      0.159498D+02
   x         -0.543431D-01     -0.138126D+00     -0.460740D+00
   y         -0.184071D+01     -0.467862D+01     -0.156062D+02
   z         -0.384595D+00     -0.977542D+00     -0.326073D+01

 Dipole polarizability, Alpha (input orientation).
 (esu units = cm**3 , SI units = C**2 m**2 J**-1)
 Alpha(0;0):
               (au)            (10**-24 esu)      (10**-40 SI)
   iso        0.718213D+02      0.106428D+02      0.118417D+02
   aniso      0.646371D+02      0.957823D+01      0.106572D+02
   xx         0.873129D+02      0.129384D+02      0.143960D+02
   yx         0.567490D+01      0.840934D+00      0.935665D+00
   yy         0.982637D+02      0.145612D+02      0.162015D+02
   zx        -0.340677D+01     -0.504831D+00     -0.561701D+00
   zy         0.106245D+00      0.157439D-01      0.175174D-01
   zz         0.298872D+02      0.442882D+01      0.492773D+01

 First dipole hyperpolarizability, Beta (input orientation).
 ||, _|_  parallel and perpendicular components, (z) with respect to z axis,
 vector components x,y,z.  Values do not include the 1/n! factor of 1/2.
 (esu units = statvolt**-1 cm**4 , SI units = C**3 m**3 J**-2)
 Beta(0;0,0):
               (au)            (10**-30 esu)      (10**-50 SI)
   || (z)    -0.123843D+02     -0.106991D+00     -0.397087D-01
   _|_(z)    -0.412811D+01     -0.356637D-01     -0.132362D-01
   x          0.122905D+03      0.106180D+01      0.394078D+00
   y          0.104185D+02      0.900077D-01      0.334055D-01
   z         -0.619217D+02     -0.534955D+00     -0.198543D+00
   ||         0.276033D+02      0.238471D+00      0.885061D-01
   xxx       -0.308526D+02     -0.266542D+00     -0.989246D-01
   xxy        0.240800D+01      0.208033D-01      0.772093D-02
   yxy        0.647628D+02      0.559500D+00      0.207653D+00
   yyy        0.543953D+01      0.469933D-01      0.174411D-01
   xxz       -0.254128D+01     -0.219546D-01     -0.814825D-02
   yxz       -0.105675D+01     -0.912951D-02     -0.338833D-02
   yyz       -0.115607D+02     -0.998754D-01     -0.370678D-01
   zxz        0.705814D+01      0.609769D-01      0.226310D-01
   zyz       -0.437470D+01     -0.377940D-01     -0.140269D-01
   zzz       -0.653860D+01     -0.564884D-01     -0.209651D-01

 ----------------------------------------------------------------------

 Dipole orientation:
     6         -1.68244146         -0.83358657         -3.66741279
     6         -2.88702401         -0.33540811         -1.38220169
     6          1.16933613          0.31168481          0.62493490
     1         -4.93662851         -0.38293546         -1.27602588
     6          0.96192762         -0.80230554         -3.81714797
     6         -1.46331684          0.23384494          0.76855198
     1         -2.75186802         -1.25565729         -5.36502804
     6          2.14152415         -1.35299908         -6.33503656
     6          2.37920312         -0.20777892         -1.65822218
     1          2.28080463          0.79017840          2.28309630
     1         -2.40476930          0.63078401          2.54955882
     1          4.42825194         -0.06465239         -1.75171112
     8          1.02859962         -1.14577912         -8.31745957
     1          5.12830883         -2.49351728         -4.60251691
     8          4.59721913         -2.12442317         -6.31927782

 Electric dipole moment (dipole orientation):
 (Debye = 10**-18 statcoulomb cm , SI units = C m)
                  (au)            (Debye)         (10**-30 SI)
   Tot        0.188124D+01      0.478164D+01      0.159498D+02
   x          0.000000D+00      0.000000D+00      0.000000D+00
   y          0.000000D+00      0.000000D+00      0.000000D+00
   z          0.188124D+01      0.478164D+01      0.159498D+02

 Dipole polarizability, Alpha (dipole orientation).
 (esu units = cm**3 , SI units = C**2 m**2 J**-1)
 Alpha(0;0):
               (au)            (10**-24 esu)      (10**-40 SI)
   iso        0.718213D+02      0.106428D+02      0.118417D+02
   aniso      0.646371D+02      0.957823D+01      0.106572D+02
   xx         0.872017D+02      0.129220D+02      0.143776D+02
   yx        -0.282115D+01     -0.418051D+00     -0.465144D+00
   yy         0.325422D+02      0.482226D+01      0.536549D+01
   zx        -0.493597D+01     -0.731435D+00     -0.813831D+00
   zy         0.136036D+02      0.201584D+01      0.224293D+01
   zz         0.957199D+02      0.141842D+02      0.157821D+02

 First dipole hyperpolarizability, Beta (dipole orientation).
 ||, _|_  parallel and perpendicular components, (z) with respect to z axis,
 vector components x,y,z.  Values do not include the 1/n! factor of 1/2.
 (esu units = statvolt**-1 cm**4 , SI units = C**3 m**3 J**-2)
 Beta(0;0,0):
               (au)            (10**-30 esu)      (10**-50 SI)
   || (z)    -0.217061D+00     -0.187524D-02     -0.695977D-03
   _|_(z)    -0.723538D-01     -0.625080D-03     -0.231992D-03
   x          0.124364D+03      0.107441D+01      0.398757D+00
   y         -0.598404D+02     -0.516975D+00     -0.191870D+00
   z         -0.108531D+01     -0.937621D-02     -0.347989D-02
   ||         0.276033D+02      0.238471D+00      0.885061D-01
   xxx       -0.306167D+02     -0.264505D+00     -0.981683D-01
   xxy       -0.345130D+01     -0.298166D-01     -0.110661D-01
   yxy        0.987721D+01      0.853314D-01      0.316699D-01
   yyy       -0.433036D+01     -0.374110D-01     -0.138847D-01
   xxz        0.205892D+01      0.177874D-01      0.660163D-02
   yxz        0.122595D+02      0.105913D+00      0.393085D-01
   yyz        0.660075D+00      0.570253D-02      0.211644D-02
   zxz        0.621942D+02      0.537310D+00      0.199417D+00
   zyz       -0.121651D+02     -0.105097D+00     -0.390059D-01
   zzz       -0.308076D+01     -0.266154D-01     -0.987803D-02

 ----------------------------------------------------------------------
 1\1\GINC-CPU01\Freq\RB3LYP\6-31G(d)\C7H6O2\QC26\21-Sep-2026\0\\#p B3LY
 P/6-31G(d) Freq=Raman Geom=AllCheck Guess=Read Int=UltraFine SCF=Tight
 \\C7H6O2 | Equilibrium Geometry | B3LYP/6-31G(d)\\0,1\C,-0.8439835273,
 2.0102741812,-0.0091403623\C,-1.5097253612,0.7879298582,0.0199965216\C
 ,0.6126749738,-0.3719301464,0.0759005757\H,-2.5957911561,0.763566024,0
 .0152323484\C,0.5570641919,2.0515696407,-0.017167459\C,-0.7826617903,-
 0.4051493481,0.06030343\H,-1.3887988036,2.948353396,-0.0276774185\C,1.
 212497776,3.4003994007,-0.0479416469\C,1.2809155572,0.8515955431,0.035
 4397129\H,1.1810262494,-1.2962278982,0.127277574\H,-1.3028074618,-1.35
 87072388,0.0875451528\H,2.3676807327,0.8590200705,0.0883387716\O,0.656
 8485734,4.4181758935,0.2908287715\H,2.7512943122,2.5900560546,-0.87155
 98131\O,2.5012747337,3.4454825689,-0.4866091586\\Version=ES64L-G16RevA
 .03\State=1-A\HF=-420.8105741\RMSD=1.222e-09\RMSF=1.352e-05\ZeroPoint=
 0.1155062\Thermal=0.1226895\Dipole=-0.0543431,-1.8407094,-0.3845946\Di
 poleDeriv=-0.0152503,0.0505663,0.0009519,-0.1074717,0.0603171,0.002047
 6,-0.0245774,-0.0198536,-0.0731024,0.1836211,0.0068379,0.0024944,0.044
 0256,-0.1427357,0.0050963,-0.0022205,-0.0014862,-0.1058913,-0.0924906,
 -0.1800123,0.0045214,-0.1352977,0.0613229,-0.013264,0.0147869,-0.00316
 5,-0.1069367,-0.1002591,-0.0133188,-0.0009406,-0.0053546,0.0600439,0.0
 024793,-0.0014326,0.0031594,0.1147827,-0.1843714,-0.1665771,0.038107,-
 0.2180518,-0.3955314,0.0050228,0.0362102,0.0113691,-0.0097805,0.042199
 8,0.0914978,0.0014822,0.0495488,0.0963846,-0.0067656,-0.0003003,-0.006
 5135,-0.0845699,0.0701506,0.0401872,-0.0047853,0.0608097,0.0237248,0.0
 046745,0.0100621,0.0142596,0.1129552,1.5430635,0.2339415,-0.470127,0.2
 624125,1.6651192,0.1175594,-0.4164046,0.0865814,0.5105304,0.065336,-0.
 0428159,0.0229144,0.1149212,0.0264308,-0.0038342,0.0535722,0.0499988,-
 0.1193638,0.0168548,0.0760871,-0.0056802,0.0633031,-0.0616787,0.007555
 ,-0.0078662,0.0064116,0.1148414,0.0277152,-0.071375,0.0006269,-0.07080
 06,-0.0634889,0.0051717,0.0010948,0.0047351,0.1128129,-0.1139569,-0.02
 52393,0.0012357,-0.0362148,0.0770111,0.0041024,-0.0075486,-0.0107237,0
 .1103641,-0.6094226,0.0625241,0.1274879,0.0619074,-1.1513181,-0.150304
 2,0.1232366,-0.1197414,-0.4307468,0.386713,0.0687053,-0.0397891,0.0808
 338,0.184979,-0.0729795,-0.0337365,-0.102604,0.316337,-1.2199031,-0.13
 10087,0.3215005,-0.1645708,-0.4405806,0.0934384,0.2551236,0.0875723,-0
 .4622323\Polar=87.3129489,5.6749031,98.2636881,-3.4067709,0.1062449,29
 .8871719\PolarDeriv=-0.8971294,-2.8295253,-7.5997434,0.0267667,0.09634
 06,-0.1796318,1.4201394,-1.6808101,-3.4701798,0.0001345,0.0791157,0.19
 43975,0.0452312,0.4719857,1.2635338,-1.8118171,1.9619906,-0.2002229,-0
 .075071,-0.5150843,-1.4939667,0.0387934,0.0453752,-0.1112584,-0.586078
 ,2.3543505,5.685178,-0.1823749,-0.1235882,-0.0057988,-0.0431343,-0.169
 0879,-0.0216021,-3.2502654,-0.204134,-0.0152255,0.9342104,3.8450585,4.
 0750535,-0.1060102,-0.059608,0.0456782,-0.2741597,1.5247845,1.2924304,
 0.0988087,-0.1076858,-0.1243203,-0.1573827,-0.0948101,-0.1347239,1.749
 8696,-2.691263,0.1925444,-11.6925528,-0.7837942,-0.4322761,-0.0195154,
 0.0064044,-0.4176556,-0.2794146,-1.7316531,-0.3581901,0.0126971,0.0032
 719,-0.0107016,-0.0674936,-0.0767626,-0.2463132,-1.7339528,-0.0850546,
 -0.0121273,1.1115101,2.9861992,8.8351493,0.0866403,0.1356374,-0.140838
 1,4.0364827,6.9460249,15.7242273,-0.1380314,-0.0572425,-0.2340972,0.25
 26423,-0.2090156,-0.8213194,1.7364768,3.212556,-0.2807736,-1.4040761,-
 0.974693,-1.0880464,-0.0221203,0.0584771,-0.0403838,-1.6608225,-0.2360
 27,-2.8736233,-0.0433959,-0.0399672,-0.1228556,0.0038668,-0.0704108,-0
 .0528158,-1.9817807,-3.6218353,0.176121,-2.4400789,2.7733027,-2.378170
 8,-0.0677969,0.0279507,-0.2200024,2.4488039,-2.661744,5.4833784,0.1025
 124,-0.2020483,0.3672254,0.0380803,0.1125327,-0.2087394,-0.866471,1.12
 45027,-0.0875634,-0.8620341,-2.5992282,-1.5122154,0.5067999,0.2292333,
 0.2692654,-3.0459904,-5.3285101,-19.5997474,0.6638647,-1.2546135,-0.65
 20698,-0.0560081,-0.0586719,-2.8935264,0.0568167,-1.0635478,-0.500724,
 1.0751967,-0.082874,1.8654061,-0.4423359,-0.0092411,0.2278792,-1.61278
 64,-4.9176856,-6.6561758,0.2174111,-0.1481767,0.0212451,-0.7972667,-0.
 2241788,-0.5662538,2.6175271,-0.3572881,-0.0078462,2.6352968,-3.214615
 ,3.3345422,0.1791793,-0.1526709,0.2232099,-1.8291106,3.5445333,-8.6966
 305,-0.1426378,0.3453541,-0.3629299,0.1241669,-0.0515678,0.4839751,0.8
 510511,-1.5388373,0.1644804,-2.7646694,-3.2525559,-3.2615518,0.0874346
 ,0.0764459,-0.2015025,-2.0095365,-4.0046742,-9.1544717,0.0874906,0.205
 8107,-0.3798165,0.1195903,0.1133541,0.0918908,-0.8212317,-1.4645436,0.
 1054164,9.1414504,-0.259557,0.5676222,0.511195,-0.2125465,0.4855511,-0
 .2544248,1.4855185,0.1402069,0.0472527,0.0135699,0.1511989,0.8782908,0
 .0795307,-0.0551222,1.3072294,-0.1256122,0.465587,-3.2711438,1.17272,-
 5.6233187,0.9672332,-0.0648921,-0.2633619,2.9639672,2.0433014,20.04603
 02,-0.5443777,1.8670729,1.0219861,0.8701758,0.8189939,3.5666169,-1.015
 4652,3.9642951,2.2072859,2.4603457,-1.3484686,-0.0440588,-1.0481367,0.
 3504977,0.1551845,-2.7800261,0.9122734,-2.769796,1.613226,-1.1288037,-
 1.2142471,-1.2186032,0.6626784,-0.8211958,1.539943,-1.0850318,-1.95235
 26,6.0487454,5.0831151,4.7555749,-0.698127,-0.5274037,0.1678662,3.4629
 563,1.7503175,5.2073633,-1.7925799,0.5479309,1.3507839,0.0078441,-1.30
 457,0.4155953,1.62207,1.9738032,-0.2545996\HyperPolar=-30.8526045,2.40
 80037,64.7628319,5.4395324,-2.5412755,-1.0567515,-11.5606961,7.0581443
 ,-4.3747023,-6.5385953\Quadrupole=5.3911686,-4.7370141,-0.6541545,-2.0
 227433,-0.9494498,-1.1041829\PG=C01 [X(C7H6O2)]\NImag=0\\0.68018598,-0
 .02336710,0.74831842,0.00004969,-0.01447244,0.13791785,-0.18244175,-0.
 12508275,0.00260155,0.74910181,-0.05874333,-0.29927461,0.00487287,0.00
 575193,0.67481753,-0.00002359,0.00583976,-0.06153230,0.00360764,-0.015
 22794,0.13279875,-0.04940752,-0.02875468,0.00075422,-0.02830082,0.0758
 1535,-0.00285722,0.69424047,-0.03107054,-0.01924151,0.00052457,0.02833
 427,0.03821154,-0.00090318,-0.03323186,0.72593498,0.00097310,0.0003601
 6,-0.00719045,-0.00121499,-0.00091801,0.00758832,0.01075844,-0.0257767
 8,0.13114484,-0.01096885,0.00153937,-0.00010351,-0.34079946,-0.0059686
 4,-0.00132970,0.00051233,0.00318765,-0.00013091,0.36130165,-0.02978437
 ,0.00384273,-0.00015583,-0.00604474,-0.06066437,0.00060756,0.00208603,
 -0.00466666,0.00035745,0.00670912,0.05967612,0.00103832,0.00033430,0.0
 0278329,-0.00124384,0.00038382,-0.03704478,-0.00004511,0.00026073,0.00
 695039,0.00148831,-0.00092811,0.02600661,-0.32075077,0.02996186,0.0002
 6669,-0.02258453,-0.07593141,0.00393384,0.05996628,0.02555837,0.000708
 01,0.00078152,-0.00182648,-0.00036062,0.67918822,-0.02603325,-0.123157
 62,-0.00102315,-0.02964190,0.02700290,-0.00092107,-0.02269569,-0.05801
 791,0.00185302,-0.00295848,-0.00481066,0.00042349,-0.03548846,0.642519
 79,0.00120730,-0.00211001,-0.06406392,-0.00001458,0.00093240,0.0075061
 6,-0.00016320,0.00197648,0.00770096,-0.00001630,0.00018306,0.00743117,
 -0.01342150,-0.00931938,0.14365276,0.06660202,0.02676194,-0.00116234,-
 0.18833988,0.05818815,-0.00214487,-0.34151690,0.02900989,-0.00552028,-
 0.01203791,0.02878928,-0.00091620,-0.05076547,0.02835987,0.00035290,0.
 69106287,-0.02046957,-0.05762978,0.00210226,0.12571312,-0.28129691,0.0
 0735309,-0.03858205,-0.13100040,0.00279334,-0.00278100,0.00533013,0.00
 002114,0.02627172,-0.01502984,-0.00012104,0.03262208,0.72802875,0.0012
 5845,0.00202714,0.00655060,-0.00466153,0.00686058,-0.06145199,-0.00193
 230,0.00338053,-0.06135803,-0.00000075,0.00006815,0.00274770,-0.001517
 07,0.00079173,-0.00768015,0.00420805,-0.01865756,0.13525302,-0.1333022
 1,0.12418924,-0.00181187,0.01261945,-0.01503278,0.00035293,-0.00057691
 ,-0.00073866,0.00001674,0.00085277,0.00048501,-0.00004089,-0.01228872,
 0.02809423,-0.00064340,-0.00126175,-0.00312366,0.00014079,0.13820833,0
 .12640215,-0.27208355,0.00590461,0.01494788,-0.01713370,0.00041212,-0.
 00086809,0.00013594,0.00001228,-0.00010496,0.00103096,-0.00004704,0.00
 032461,0.00461056,-0.00012957,-0.00364403,-0.00273578,0.00010987,-0.13
 486367,0.28703775,-0.00236784,0.00512056,-0.03889985,-0.00046945,0.000
 60303,0.00362052,0.00002753,0.00013424,-0.00043584,0.00003316,-0.00013
 176,-0.00410221,0.00053655,0.00089034,0.00374075,-0.00004788,0.0003132
 3,0.00748633,0.00171601,-0.00613486,0.02719579,-0.01489445,-0.03208987
 ,0.00100382,-0.00747069,-0.00031075,-0.00021322,-0.00031073,0.00864739
 ,-0.00015667,-0.00029279,-0.00122376,0.00017098,-0.12405699,-0.0415067
 6,0.00354778,-0.00347185,0.00258075,-0.00019710,-0.00219321,-0.0012780
 2,-0.00016310,0.61744341,-0.02344087,0.00026978,0.00185826,0.00364377,
 0.00519087,0.00001056,0.00581612,0.00076608,0.00032674,0.00114372,0.00
 119337,-0.00001168,-0.03266016,-0.15837596,0.00263677,0.00094459,-0.00
 064782,0.00002002,0.00462625,-0.00043464,-0.00059647,-0.17572714,0.887
 11251,-0.00161744,-0.00074122,0.00161508,0.00092946,0.00082586,0.00741
 570,-0.00101815,-0.00021579,0.00748134,0.00004856,0.00005689,0.0004386
 6,0.00053893,0.00737228,-0.07682222,0.00032332,-0.00091228,-0.00076841
 ,0.00120197,0.00005254,-0.00383017,-0.15639147,0.16256282,0.27596220,-
 0.02951397,0.02756593,-0.00109109,-0.00115612,0.00107234,-0.00008202,-
 0.17520444,-0.12314542,0.00294061,0.00076669,0.00006550,0.00001861,-0.
 18249313,0.11543427,-0.00361021,-0.02589514,-0.02933680,0.00118002,-0.
 00564927,-0.00107801,-0.00000283,0.02093996,-0.00443340,0.00102956,0.7
 3052711,0.07274347,0.03479223,-0.00034641,0.00069145,-0.06765979,0.001
 60253,-0.05577148,-0.29430406,0.00916414,0.00005868,-0.00133988,0.0000
 1188,0.06205877,-0.26144671,0.01100683,-0.07948678,0.03168928,-0.00201
 321,-0.00204901,0.00093272,0.00014647,0.00518466,-0.02999446,0.0021208
 7,0.00972451,0.66779619,-0.00178440,0.00052166,0.00797845,0.00021552,0
 .00149346,-0.00743804,0.00051478,0.00823024,-0.06014658,-0.00000564,-0
 .00000097,-0.00020419,-0.00516369,0.01149384,-0.06028569,0.00200260,-0
 .00150042,0.00704587,0.00009807,-0.00000038,0.00579048,0.00094377,-0.0
 0077212,-0.00134710,0.01743341,-0.02288626,0.13238560,-0.00081227,-0.0
 0087470,0.00003404,-0.00557641,-0.00191641,-0.00008141,-0.13717127,0.1
 2506195,-0.00747966,-0.00067544,0.00152092,-0.00001954,-0.00114176,-0.
 00290971,0.00003881,-0.01145381,0.02916591,-0.00157162,0.00011201,0.00
 008654,0.00000771,0.00077483,-0.00042798,0.00008718,0.01189765,-0.0149
 7203,0.00081529,0.14210217,-0.00081812,0.00028579,-0.00003804,-0.00068
 834,0.00129165,0.00032372,0.12488170,-0.26332862,0.01215461,-0.0002127
 6,0.00015794,-0.00000009,-0.00442651,-0.00299249,0.00055196,-0.0024435
 8,0.00490903,-0.00012538,0.00007526,-0.00002432,-0.00006078,0.00183089
 ,0.00040832,0.00004087,0.01655427,-0.01924478,0.00133364,-0.13438260,0
 .27793595,-0.00021651,-0.00028310,-0.00038271,-0.00008891,0.00039910,0
 .00696503,-0.00801520,0.01217901,-0.03631219,-0.00000383,0.00004600,0.
 00027351,0.00026951,0.00012689,0.00719825,0.00036399,0.00016427,0.0025
 9443,-0.00001406,-0.00001648,-0.00116017,-0.00006957,-0.00002449,0.000
 79097,-0.00082566,0.00121191,0.00187871,0.00803916,-0.01360949,0.02627
 946,-0.00141107,0.00322649,-0.00009273,0.01241337,0.01593933,-0.000475
 91,-0.01002067,-0.02979658,0.00097570,0.00086934,-0.00049030,0.0000376
 2,-0.00082621,0.00087094,-0.00001781,-0.12512000,-0.11740782,0.0030724
 6,0.00047903,0.00078122,-0.00003723,-0.00025893,0.00022577,0.00012597,
 -0.00556442,0.00122880,-0.00027354,0.00109856,0.00034887,0.00006689,0.
 12866125,0.00416933,-0.00298457,0.00031287,-0.01554099,-0.01860454,0.0
 0063909,0.00177285,0.00346621,-0.00000813,0.00020313,0.00101283,-0.000
 15594,0.00089148,0.00024684,-0.00003363,-0.11753988,-0.27630455,0.0069
 5878,-0.00083631,-0.00085451,0.00004488,0.00024612,0.00008568,-0.00010
 322,0.00035014,0.00150414,0.00021605,-0.00033235,0.00078399,-0.0001621
 7,0.12679546,0.29172598,-0.00003888,0.00026131,0.00719288,0.00056059,0
 .00073142,0.00329186,-0.00024940,-0.00025033,0.00318827,0.00002017,-0.
 00016458,-0.00378864,-0.00020527,0.00013883,-0.00039137,0.00306058,0.0
 0707549,-0.03789454,0.00004383,0.00004926,-0.00002192,-0.00008685,-0.0
 0009222,-0.00129357,-0.00009983,0.00020753,0.00721992,0.00012362,-0.00
 020765,-0.00387342,-0.00331993,-0.00774191,0.02607818,0.00065084,0.003
 43146,-0.00047787,0.00066750,0.00000319,-0.00002234,-0.01252956,0.0021
 6565,-0.00074233,-0.00008765,-0.00001269,0.00008403,-0.01278902,-0.001
 28750,-0.00053235,0.00083344,-0.00332593,-0.00028964,-0.00076602,-0.00
 028164,-0.00002830,-0.00440858,-0.00167037,0.00135610,-0.33144266,-0.0
 0167317,-0.01352790,0.00102853,-0.00011949,0.00033485,-0.00075001,0.00
 017901,-0.00002899,0.35483539,0.00188681,-0.00508726,0.00032750,-0.000
 01133,-0.00108555,0.00016901,-0.02991428,0.00432684,-0.00119512,-0.000
 02689,0.00017895,-0.00009047,0.02628687,0.00586061,0.00033209,-0.00184
 497,-0.00488325,0.00045661,0.00150991,0.00033022,-0.00000399,0.0023674
 6,0.00103332,-0.00046856,0.00025253,-0.06005709,0.00149665,0.00033506,
 0.00095730,-0.00019034,-0.00152234,0.00007687,0.00004189,0.00364062,0.
 06120307,-0.00026033,0.00018086,0.00627601,-0.00008739,0.00024155,-0.0
 0039414,0.00180613,-0.00000652,0.00289836,0.00002023,-0.00003095,-0.00
 130138,-0.00058772,-0.00149926,0.00158045,0.00009575,0.00088410,0.0072
 9633,-0.00008516,-0.00007694,0.00071823,-0.00018062,0.00022569,-0.0036
 9185,-0.01723920,0.00197215,-0.03540003,0.00008577,-0.00020883,-0.0039
 0034,0.00013816,-0.00000195,0.00011516,0.01489850,-0.00365299,0.025961
 99,-0.00607657,-0.00181563,-0.00053268,0.00226752,0.00104533,-0.000097
 67,0.00076733,-0.00136216,-0.00032921,0.00007217,0.00019912,-0.0000801
 4,0.01841949,0.00028573,0.00077689,0.00063220,-0.00104887,0.00018534,0
 .00231478,-0.00136395,-0.00002257,-0.22370892,0.24064562,0.08517458,-0
 .00204727,-0.00110909,-0.00087303,-0.00010355,-0.00021864,0.00008588,0
 .00019685,-0.00020702,0.00004547,0.00123146,-0.00059760,0.00044246,0.2
 6552186,0.00676548,-0.00159366,-0.00087681,-0.00004045,-0.00029461,0.0
 0058484,-0.00084430,-0.00290721,0.00132567,-0.00041650,-0.00029213,-0.
 00006998,0.01463592,-0.05868618,-0.01526771,0.00108869,-0.00059164,0.0
 0002197,-0.00188908,-0.00086738,-0.00040263,0.24066423,-0.58760740,-0.
 15953265,-0.00893717,-0.00029259,-0.00003594,-0.00035401,-0.00095812,0
 .00013796,-0.00018384,-0.00010816,-0.00013601,0.00035549,0.00038825,-0
 .00092321,-0.29544955,0.64777241,0.00206294,0.00101434,0.00006021,-0.0
 0023420,-0.00056453,-0.00058609,0.00057826,-0.00035550,-0.00120489,-0.
 00006418,-0.00003998,0.00000558,0.00396792,-0.01132201,0.01788926,-0.0
 0014621,0.00044277,0.00008514,-0.00026055,0.00030845,-0.00026169,0.083
 56001,-0.15886801,-0.12479545,-0.00185654,-0.00066059,0.00255601,-0.00
 008741,-0.00017519,-0.00034230,-0.00006232,-0.00000433,0.00013795,-0.0
 0035332,0.00025727,0.00037773,-0.12309809,0.19264928,0.10227189,-0.000
 83507,0.00033569,-0.00027633,0.00026217,0.00077376,0.00015813,-0.00064
 979,-0.00075001,-0.00045972,0.00010183,0.00009411,0.00002565,-0.000878
 26,-0.00090648,-0.00087846,0.00079195,-0.00028844,0.00003949,0.0001790
 9,0.00009154,-0.00000435,-0.01102301,0.04534548,0.01544588,0.00127139,
 -0.00015381,0.00029008,0.00001891,0.00018556,0.00002600,0.00006096,0.0
 0005575,0.00004836,0.00078363,-0.00031504,0.00055453,-0.00938741,-0.00
 108517,0.00500453,0.08202777,0.00080306,-0.00031177,0.00066304,0.00007
 191,-0.00032986,-0.00016733,0.00056164,-0.00092169,-0.00025113,0.00000
 646,-0.00005999,-0.00008755,-0.00332897,-0.00061408,0.00108622,-0.0000
 5717,0.00012260,0.00017994,0.00017851,0.00006333,0.00007573,0.00386777
 ,-0.00148839,0.00083667,-0.00463405,-0.00045820,0.00017570,-0.00005240
 ,-0.00002599,-0.00004058,0.00015244,0.00002751,0.00001902,0.00077891,-
 0.00252405,0.00223493,-0.00235824,0.00475365,-0.00033178,-0.10433028,0
 .39446930,-0.00016090,-0.00048050,0.00012696,-0.00040741,0.00009510,0.
 00003245,-0.00105521,0.00036062,-0.00014081,-0.00008370,-0.00006996,-0
 .00000306,-0.00073891,0.00117556,-0.00028859,-0.00004355,-0.00030318,-
 0.00001713,-0.00026755,-0.00001751,-0.00001588,-0.00199532,-0.01668521
 ,-0.01033147,0.00267760,-0.00083206,-0.00004317,0.00003865,-0.00006703
 ,0.00005373,-0.00016313,-0.00003080,0.00000658,-0.00100393,0.00257972,
 -0.00035072,0.00479474,0.00094473,0.00516488,-0.06355818,0.16777716,0.
 08976012,0.00297567,-0.00502723,0.00083839,-0.00066215,-0.00068606,-0.
 00072461,0.00020220,-0.00186994,-0.00033883,-0.00039620,-0.00056673,-0
 .00015719,-0.02978064,-0.00961681,0.01337412,-0.00005976,0.00001055,0.
 00008542,0.00127261,0.00084843,0.00082260,-0.24706805,-0.06403139,0.05
 276554,-0.00643638,0.00352504,-0.00068531,-0.00009815,-0.00056651,0.00
 004748,0.00017195,-0.00020670,0.00012654,0.00274271,-0.00204682,0.0003
 9890,-0.05009992,0.04569027,0.03098917,-0.06272414,0.10834040,0.061966
 80,0.38996025,0.00095687,-0.00614462,0.00034671,-0.00210383,-0.0001705
 6,-0.00032275,-0.00027126,0.00154649,-0.00019825,-0.00037890,-0.000589
 33,-0.00004449,-0.03232761,0.00289075,0.00827552,-0.00074807,0.0000401
 9,-0.00007918,-0.00062525,-0.00000761,0.00000201,-0.01325297,-0.117511
 26,-0.01189508,0.00054537,-0.00191700,0.00023484,0.00005181,-0.0001556
 4,0.00006152,-0.00016843,-0.00007373,0.00006794,-0.00218354,-0.0007182
 1,0.00066138,0.06335496,0.00128476,-0.02235019,0.06094734,-0.39270235,
 -0.15444663,-0.07379649,0.51422812,-0.00011990,0.00242718,0.00156791,0
 .00050754,-0.00072871,-0.00077144,0.00089643,0.00046169,-0.00016367,0.
 00012810,0.00020302,-0.00019265,0.01177331,-0.00018111,0.01283219,-0.0
 0042587,0.00034481,0.00011083,-0.00044687,-0.00042635,0.00017563,0.070
 22757,0.00940933,-0.07082372,-0.00047240,-0.00070577,0.00000977,-0.000
 03059,0.00008767,-0.00006295,0.00002583,0.00007042,0.00003266,0.000333
 47,-0.00005928,-0.00018577,0.03352802,-0.01841951,-0.00135822,0.043584
 38,-0.17217003,-0.08395387,-0.15950903,0.17968664,0.14278330\\-0.00001
 622,-0.00001168,0.00000512,-0.00000713,0.00001511,-0.00000102,-0.00000
 507,0.00000604,0.00000062,0.00000159,0.00000205,0.00000103,0.00004973,
 -0.00001920,-0.00000338,-0.00000465,-0.00001782,-0.00000022,-0.0000001
 6,-0.00000736,-0.00000029,-0.00004630,-0.00000586,-0.00000006,-0.00000
 835,0.00002544,-0.00000336,0.00000379,0.00000274,-0.00000203,-0.000000
 31,-0.00000022,-0.00000020,0.00000508,-0.00000232,0.00000058,0.0000189
 6,0.00001405,-0.00000286,-0.00000950,-0.00000583,-0.00000592,0.0000185
 5,0.00000486,0.00001198\\\@


 I HAVE NOT FAILED, I HAVE ONLY DISCOVERED 10,000
 WAYS THAT DIDN'T WORK.  -- THOMAS A. EDISON
 Job cpu time:       0 days  0 hours  5 minutes 46.8 seconds.
 Elapsed time:       0 days  0 hours  1 minutes 10.9 seconds.
 File lengths (MBytes):  RWF=    107 Int=      0 D2E=      0 Chk=     67 Scr=      2
 Normal termination of Gaussian 16 at Mon Sep 21 11:04:58 2026.
