%NProcShared=5
%mem=28GB
%Chk=job.chk
#p B3LYP/6-31G(d) Opt Freq=Raman

 C14H12O4 | Frequencies | B3LYP/6-31G(d)

0 1
C      4.954792    1.848078   -2.228805
C      4.780517    3.214024   -2.439972
C      5.572840    2.960124   -4.701991
H      4.403355    3.843681   -1.637798
C      5.440557    1.021871   -3.249713
C      5.089152    3.771093   -3.677635
H      4.708547    1.430135   -1.255558
C      5.614057   -0.447489   -2.979868
C      5.749107    1.592504   -4.490808
H      5.813433    3.394543   -5.668672
H      4.952697    4.837158   -3.843456
H      6.127200    0.976857   -5.302868
O      5.340230   -0.945112   -1.908319
H      6.145429   -2.107596   -3.647499
O      6.081181   -1.173301   -3.964927
O      6.078290   -3.690190   -2.666803
C      6.228109   -5.573515   -1.208180
C      5.922590   -4.141062   -1.550980
O      5.482748   -3.390057   -0.571964
H      5.348632   -2.478126   -0.931040
C      6.718800   -6.423389   -2.206352
H      7.056231   -9.293273   -0.419043
C      6.039343   -6.084921    0.081674
C      7.016258   -7.755058   -1.924426
C      6.335618   -7.418674    0.362429
H      7.398651   -8.403761   -2.709303
C      6.824508   -8.254107   -0.639225
H      6.185052   -7.807872    1.366465
H      6.875459   -6.050223   -3.215792
H      5.659075   -5.450478    0.878215

