 Entering Gaussian System, Link 0=g16
 Initial command:
 /opt/software/gaussian/16RevA.03/g16/l1.exe "/home/class-qc/qc26/g16scratch/726/Gau-113049.inp" -scrdir="/home/class-qc/qc26/g16scratch/726/"
 Entering Link 1 = /opt/software/gaussian/16RevA.03/g16/l1.exe PID=    113051.
  
 Copyright (c) 1988,1990,1992,1993,1995,1998,2003,2009,2016,
            Gaussian, Inc.  All Rights Reserved.
  
 This is part of the Gaussian(R) 16 program.  It is based on
 the Gaussian(R) 09 system (copyright 2009, Gaussian, Inc.),
 the Gaussian(R) 03 system (copyright 2003, Gaussian, Inc.),
 the Gaussian(R) 98 system (copyright 1998, Gaussian, Inc.),
 the Gaussian(R) 94 system (copyright 1995, Gaussian, Inc.),
 the Gaussian 92(TM) system (copyright 1992, Gaussian, Inc.),
 the Gaussian 90(TM) system (copyright 1990, Gaussian, Inc.),
 the Gaussian 88(TM) system (copyright 1988, Gaussian, Inc.),
 the Gaussian 86(TM) system (copyright 1986, Carnegie Mellon
 University), and the Gaussian 82(TM) system (copyright 1983,
 Carnegie Mellon University). Gaussian is a federally registered
 trademark of Gaussian, Inc.
  
 This software contains proprietary and confidential information,
 including trade secrets, belonging to Gaussian, Inc.
  
 This software is provided under written license and may be
 used, copied, transmitted, or stored only in accord with that
 written license.
  
 The following legend is applicable only to US Government
 contracts under FAR:
  
                    RESTRICTED RIGHTS LEGEND
  
 Use, reproduction and disclosure by the US Government is
 subject to restrictions as set forth in subparagraphs (a)
 and (c) of the Commercial Computer Software - Restricted
 Rights clause in FAR 52.227-19.
  
 Gaussian, Inc.
 340 Quinnipiac St., Bldg. 40, Wallingford CT 06492
  
  
 ---------------------------------------------------------------
 Warning -- This program may not be used in any manner that
 competes with the business of Gaussian, Inc. or will provide
 assistance to any competitor of Gaussian, Inc.  The licensee
 of this program is prohibited from giving any competitor of
 Gaussian, Inc. access to this program.  By using this program,
 the user acknowledges that Gaussian, Inc. is engaged in the
 business of creating and licensing software in the field of
 computational chemistry and represents and warrants to the
 licensee that it is not a competitor of Gaussian, Inc. and that
 it will not use this program in any manner prohibited above.
 ---------------------------------------------------------------
  

 Cite this work as:
 Gaussian 16, Revision A.03,
 M. J. Frisch, G. W. Trucks, H. B. Schlegel, G. E. Scuseria, 
 M. A. Robb, J. R. Cheeseman, G. Scalmani, V. Barone, 
 G. A. Petersson, H. Nakatsuji, X. Li, M. Caricato, A. V. Marenich, 
 J. Bloino, B. G. Janesko, R. Gomperts, B. Mennucci, H. P. Hratchian, 
 J. V. Ortiz, A. F. Izmaylov, J. L. Sonnenberg, D. Williams-Young, 
 F. Ding, F. Lipparini, F. Egidi, J. Goings, B. Peng, A. Petrone, 
 T. Henderson, D. Ranasinghe, V. G. Zakrzewski, J. Gao, N. Rega, 
 G. Zheng, W. Liang, M. Hada, M. Ehara, K. Toyota, R. Fukuda, 
 J. Hasegawa, M. Ishida, T. Nakajima, Y. Honda, O. Kitao, H. Nakai, 
 T. Vreven, K. Throssell, J. A. Montgomery, Jr., J. E. Peralta, 
 F. Ogliaro, M. J. Bearpark, J. J. Heyd, E. N. Brothers, K. N. Kudin, 
 V. N. Staroverov, T. A. Keith, R. Kobayashi, J. Normand, 
 K. Raghavachari, A. P. Rendell, J. C. Burant, S. S. Iyengar, 
 J. Tomasi, M. Cossi, J. M. Millam, M. Klene, C. Adamo, R. Cammi, 
 J. W. Ochterski, R. L. Martin, K. Morokuma, O. Farkas, 
 J. B. Foresman, and D. J. Fox, Gaussian, Inc., Wallingford CT, 2016.
 
 ******************************************
 Gaussian 16:  ES64L-G16RevA.03 25-Dec-2016
                21-Sep-2026 
 ******************************************
 %NProcShared=5
 Will use up to    5 processors via shared memory.
 %mem=28GB
 %OldChk=../Base1/job.chk
 %Chk=job.chk
 Copying data from "../Base1/job.chk" to current chk file "job.chk"
 IOpt=  2 FromEx=T IUOpen= 4 IOptOp= 5 NList=   0 IFRang= 0 IUIn= 4 IUOut= 2.
 ----------------------------------------------------------------------
 #p B3LYP/6-31G(d) Freq=Raman Geom=AllCheck Guess=Read Int=UltraFine SC
 F=Tight
 ----------------------------------------------------------------------
 1/10=4,29=7,30=1,38=1/1,3;
 2/12=2,40=1/2;
 3/5=1,6=6,7=1,11=2,14=-4,25=1,30=1,71=2,74=-5,75=-5,116=-2,140=1/1,2,3;
 4/5=1/1;
 5/5=2,32=2,38=6,98=1/2;
 8/6=4,10=90,11=11/1;
 10/13=10,15=4/2;
 11/6=3,8=1,9=11,15=111,16=1/1,2,10;
 10/6=1/2;
 6/7=2,8=2,9=2,10=2,28=1/1;
 7/8=1,10=1,25=1/1,2,3,16;
 1/10=4,30=1/3;
 99//99;
 Leave Link    1 at Mon Sep 21 10:58:56 2026, MaxMem=  3758096384 cpu:               1.0 elap:               0.3
 (Enter /opt/software/gaussian/16RevA.03/g16/l101.exe)
 Structure from the checkpoint file:  "job.chk"
 ----------------------------------------------
 C7H6O2 | Equilibrium Geometry | B3LYP/6-31G(d)
 ----------------------------------------------
 Charge =  0 Multiplicity = 1
 Redundant internal coordinates found in file.  (old form).
 C,0,-0.8798652977,2.0126180025,0.0305233585
 C,0,-1.5254871416,0.7803904158,0.0843250929
 C,0,0.6179818393,-0.3463828542,0.0348460294
 H,0,-2.6103318338,0.7381467653,0.1245275417
 C,0,0.5197263201,2.0699204277,-0.0214123368
 C,0,-0.7770476395,-0.3999526862,0.0865247492
 H,0,-1.4382804441,2.9429384512,0.0276531148
 C,0,1.1583645374,3.4107400595,-0.0776494845
 C,0,1.2688694102,0.8848531326,-0.0191212269
 H,0,1.1986051214,-1.2646647201,0.036616753
 H,0,-1.2812200376,-1.3618482392,0.1285300391
 H,0,2.351326477,0.9345683805,-0.059422401
 O,0,0.5605031915,4.4687227557,-0.0822592313
 H,0,2.8139610187,4.2814896843,-0.1589658249
 O,0,2.5153904789,3.3539854247,-0.1252301669
 Recover connectivity data from disk.
 ITRead=  0  0  0  0  0  0  0  0  0  0  0  0  0  0  0
 MicOpt= -1 -1 -1 -1 -1 -1 -1 -1 -1 -1 -1 -1 -1 -1 -1
 NAtoms=     15 NQM=       15 NQMF=       0 NMMI=      0 NMMIF=      0
                NMic=       0 NMicF=      0.
                    Isotopes and Nuclear Properties:
 (Nuclear quadrupole moments (NQMom) in fm**2, nuclear magnetic moments (NMagM)
  in nuclear magnetons)

  Atom         1           2           3           4           5           6           7           8           9          10
 IAtWgt=          12          12          12           1          12          12           1          12          12           1
 AtmWgt=  12.0000000  12.0000000  12.0000000   1.0078250  12.0000000  12.0000000   1.0078250  12.0000000  12.0000000   1.0078250
 NucSpn=           0           0           0           1           0           0           1           0           0           1
 AtZEff=   3.6000000   3.6000000   3.6000000   1.0000000   3.6000000   3.6000000   1.0000000   3.6000000   3.6000000   1.0000000
 NQMom=    0.0000000   0.0000000   0.0000000   0.0000000   0.0000000   0.0000000   0.0000000   0.0000000   0.0000000   0.0000000
 NMagM=    0.0000000   0.0000000   0.0000000   2.7928460   0.0000000   0.0000000   2.7928460   0.0000000   0.0000000   2.7928460
 AtZNuc=   6.0000000   6.0000000   6.0000000   1.0000000   6.0000000   6.0000000   1.0000000   6.0000000   6.0000000   1.0000000

  Atom        11          12          13          14          15
 IAtWgt=           1           1          16           1          16
 AtmWgt=   1.0078250   1.0078250  15.9949146   1.0078250  15.9949146
 NucSpn=           1           1           0           1           0
 AtZEff=   1.0000000   1.0000000   5.6000000   1.0000000   5.6000000
 NQMom=    0.0000000   0.0000000   0.0000000   0.0000000   0.0000000
 NMagM=    2.7928460   2.7928460   0.0000000   2.7928460   0.0000000
 AtZNuc=   1.0000000   1.0000000   8.0000000   1.0000000   8.0000000
 Leave Link  101 at Mon Sep 21 10:58:57 2026, MaxMem=  3758096384 cpu:               1.7 elap:               0.4
 (Enter /opt/software/gaussian/16RevA.03/g16/l103.exe)

 GradGradGradGradGradGradGradGradGradGradGradGradGradGradGradGradGradGrad
 Berny optimization.
 Initialization pass.
                           ----------------------------
                           !    Initial Parameters    !
                           ! (Angstroms and Degrees)  !
 --------------------------                            --------------------------
 ! Name  Definition              Value          Derivative Info.                !
 --------------------------------------------------------------------------------
 ! R1    R(1,2)                  1.3922         calculate D2E/DX2 analytically  !
 ! R2    R(1,5)                  1.4017         calculate D2E/DX2 analytically  !
 ! R3    R(1,7)                  1.085          calculate D2E/DX2 analytically  !
 ! R4    R(2,4)                  1.0864         calculate D2E/DX2 analytically  !
 ! R5    R(2,6)                  1.3976         calculate D2E/DX2 analytically  !
 ! R6    R(3,6)                  1.397          calculate D2E/DX2 analytically  !
 ! R7    R(3,9)                  1.3937         calculate D2E/DX2 analytically  !
 ! R8    R(3,10)                 1.0864         calculate D2E/DX2 analytically  !
 ! R9    R(5,8)                  1.4862         calculate D2E/DX2 analytically  !
 ! R10   R(5,9)                  1.402          calculate D2E/DX2 analytically  !
 ! R11   R(6,11)                 1.0868         calculate D2E/DX2 analytically  !
 ! R12   R(8,13)                 1.2152         calculate D2E/DX2 analytically  !
 ! R13   R(8,15)                 1.359          calculate D2E/DX2 analytically  !
 ! R14   R(9,12)                 1.0843         calculate D2E/DX2 analytically  !
 ! R15   R(14,15)                0.975          calculate D2E/DX2 analytically  !
 ! A1    A(2,1,5)              120.044          calculate D2E/DX2 analytically  !
 ! A2    A(2,1,7)              121.3546         calculate D2E/DX2 analytically  !
 ! A3    A(5,1,7)              118.6014         calculate D2E/DX2 analytically  !
 ! A4    A(1,2,4)              119.9295         calculate D2E/DX2 analytically  !
 ! A5    A(1,2,6)              119.9489         calculate D2E/DX2 analytically  !
 ! A6    A(4,2,6)              120.1216         calculate D2E/DX2 analytically  !
 ! A7    A(6,3,9)              120.1094         calculate D2E/DX2 analytically  !
 ! A8    A(6,3,10)             120.079          calculate D2E/DX2 analytically  !
 ! A9    A(9,3,10)             119.8116         calculate D2E/DX2 analytically  !
 ! A10   A(1,5,8)              117.8616         calculate D2E/DX2 analytically  !
 ! A11   A(1,5,9)              119.9279         calculate D2E/DX2 analytically  !
 ! A12   A(8,5,9)              122.2105         calculate D2E/DX2 analytically  !
 ! A13   A(2,6,3)              120.1524         calculate D2E/DX2 analytically  !
 ! A14   A(2,6,11)             119.94           calculate D2E/DX2 analytically  !
 ! A15   A(3,6,11)             119.9075         calculate D2E/DX2 analytically  !
 ! A16   A(5,8,13)             125.0417         calculate D2E/DX2 analytically  !
 ! A17   A(5,8,15)             113.1239         calculate D2E/DX2 analytically  !
 ! A18   A(13,8,15)            121.8344         calculate D2E/DX2 analytically  !
 ! A19   A(3,9,5)              119.8174         calculate D2E/DX2 analytically  !
 ! A20   A(3,9,12)             120.5397         calculate D2E/DX2 analytically  !
 ! A21   A(5,9,12)             119.6429         calculate D2E/DX2 analytically  !
 ! A22   A(8,15,14)            105.5017         calculate D2E/DX2 analytically  !
 ! D1    D(5,1,2,4)            180.0            calculate D2E/DX2 analytically  !
 ! D2    D(5,1,2,6)              0.0            calculate D2E/DX2 analytically  !
 ! D3    D(7,1,2,4)              0.0            calculate D2E/DX2 analytically  !
 ! D4    D(7,1,2,6)           -180.0            calculate D2E/DX2 analytically  !
 ! D5    D(2,1,5,8)           -180.0            calculate D2E/DX2 analytically  !
 ! D6    D(2,1,5,9)              0.0            calculate D2E/DX2 analytically  !
 ! D7    D(7,1,5,8)              0.0            calculate D2E/DX2 analytically  !
 ! D8    D(7,1,5,9)           -180.0            calculate D2E/DX2 analytically  !
 ! D9    D(1,2,6,3)              0.0            calculate D2E/DX2 analytically  !
 ! D10   D(1,2,6,11)          -180.0            calculate D2E/DX2 analytically  !
 ! D11   D(4,2,6,3)            180.0            calculate D2E/DX2 analytically  !
 ! D12   D(4,2,6,11)             0.0            calculate D2E/DX2 analytically  !
 ! D13   D(9,3,6,2)              0.0            calculate D2E/DX2 analytically  !
 ! D14   D(9,3,6,11)           180.0            calculate D2E/DX2 analytically  !
 ! D15   D(10,3,6,2)           180.0            calculate D2E/DX2 analytically  !
 ! D16   D(10,3,6,11)            0.0            calculate D2E/DX2 analytically  !
 ! D17   D(6,3,9,5)              0.0            calculate D2E/DX2 analytically  !
 ! D18   D(6,3,9,12)           180.0            calculate D2E/DX2 analytically  !
 ! D19   D(10,3,9,5)          -180.0            calculate D2E/DX2 analytically  !
 ! D20   D(10,3,9,12)            0.0            calculate D2E/DX2 analytically  !
 ! D21   D(1,5,8,13)            -0.0002         calculate D2E/DX2 analytically  !
 ! D22   D(1,5,8,15)          -179.9998         calculate D2E/DX2 analytically  !
 ! D23   D(9,5,8,13)           179.9998         calculate D2E/DX2 analytically  !
 ! D24   D(9,5,8,15)             0.0002         calculate D2E/DX2 analytically  !
 ! D25   D(1,5,9,3)              0.0            calculate D2E/DX2 analytically  !
 ! D26   D(1,5,9,12)           180.0            calculate D2E/DX2 analytically  !
 ! D27   D(8,5,9,3)            180.0            calculate D2E/DX2 analytically  !
 ! D28   D(8,5,9,12)             0.0            calculate D2E/DX2 analytically  !
 ! D29   D(5,8,15,14)          179.9998         calculate D2E/DX2 analytically  !
 ! D30   D(13,8,15,14)           0.0002         calculate D2E/DX2 analytically  !
 --------------------------------------------------------------------------------
 Trust Radius=3.00D-01 FncErr=1.00D-07 GrdErr=1.00D-07 EigMax=2.50D+02 EigMin=1.00D-04
 Number of steps in this run=      2 maximum allowed number of steps=      2.
 GradGradGradGradGradGradGradGradGradGradGradGradGradGradGradGradGradGrad

 Leave Link  103 at Mon Sep 21 10:58:57 2026, MaxMem=  3758096384 cpu:               0.2 elap:               0.1
 (Enter /opt/software/gaussian/16RevA.03/g16/l202.exe)
                          Input orientation:                          
 ---------------------------------------------------------------------
 Center     Atomic      Atomic             Coordinates (Angstroms)
 Number     Number       Type             X           Y           Z
 ---------------------------------------------------------------------
      1          6           0       -0.879865    2.012618    0.030523
      2          6           0       -1.525487    0.780390    0.084325
      3          6           0        0.617982   -0.346383    0.034846
      4          1           0       -2.610332    0.738147    0.124528
      5          6           0        0.519726    2.069920   -0.021412
      6          6           0       -0.777048   -0.399953    0.086525
      7          1           0       -1.438280    2.942938    0.027653
      8          6           0        1.158365    3.410740   -0.077649
      9          6           0        1.268869    0.884853   -0.019121
     10          1           0        1.198605   -1.264665    0.036617
     11          1           0       -1.281220   -1.361848    0.128530
     12          1           0        2.351326    0.934568   -0.059422
     13          8           0        0.560503    4.468723   -0.082259
     14          1           0        2.813961    4.281490   -0.158966
     15          8           0        2.515390    3.353985   -0.125230
 ---------------------------------------------------------------------
                    Distance matrix (angstroms):
                    1          2          3          4          5
     1  C    0.000000
     2  C    1.392159   0.000000
     3  C    2.794360   2.422091   0.000000
     4  H    2.151192   1.086411   3.406796   0.000000
     5  C    1.401727   2.420117   2.418954   3.404730   0.000000
     6  C    2.415410   1.397632   1.397014   2.158158   2.791692
     7  H    1.085049   2.165048   3.879162   2.498839   2.144378
     8  C    2.474031   3.761387   3.797452   4.624576   1.486209
     9  C    2.427216   2.798221   1.393739   3.884631   1.402000
    10  H    3.880806   3.406641   1.086447   4.304298   3.403484
    11  H    3.399664   2.156573   2.155670   2.485263   3.878521
    12  H    3.407474   3.882540   2.157361   4.968951   2.155279
    13  O    2.849532   4.240625   4.816872   4.900424   2.399920
    14  H    4.339129   5.581012   5.126119   6.485260   3.189588
    15  O    3.653941   4.795414   4.161551   5.760036   2.375348
                    6          7          8          9         10
     6  C    0.000000
     7  H    3.408169   0.000000
     8  C    4.277166   2.640548   0.000000
     9  C    2.418194   3.400965   2.528980   0.000000
    10  H    2.157179   4.965599   4.676974   2.151388   0.000000
    11  H    1.086829   4.308832   5.363924   3.401827   2.483430
    12  H    3.404258   4.289785   2.748621   1.084347   2.484878
    13  O    5.051884   2.516989   1.215231   3.653750   5.770012
    14  H    5.905211   4.461850   1.872383   3.734167   5.779918
    15  O    4.997703   3.977920   1.359045   2.767975   4.805419
                   11         12         13         14         15
    11  H    0.000000
    12  H    4.301657   0.000000
    13  O    6.118164   3.962047   0.000000
    14  H    6.978569   3.380210   2.262523   0.000000
    15  O    6.059516   2.425866   2.250793   0.974960   0.000000
 Stoichiometry    C7H6O2
 Framework group  C1[X(C7H6O2)]
 Deg. of freedom    39
 Full point group                 C1      NOp   1
 RotChk:  IX=2 Diff= 7.11D-16
 Largest Abelian subgroup         C1      NOp   1
 Largest concise Abelian subgroup C1      NOp   1
                         Standard orientation:                         
 ---------------------------------------------------------------------
 Center     Atomic      Atomic             Coordinates (Angstroms)
 Number     Number       Type             X           Y           Z
 ---------------------------------------------------------------------
      1          6           0       -0.512268    1.222412    0.000000
      2          6           0       -1.903977    1.187028   -0.000000
      3          6           0       -1.843785   -1.234315   -0.000000
      4          1           0       -2.469780    2.114473   -0.000001
      5          6           0        0.220142    0.027250    0.000001
      6          6           0       -2.570708   -0.041323   -0.000001
      7          1           0        0.028586    2.163055    0.000001
      8          6           0        1.703355    0.121575    0.000002
      9          6           0       -0.450375   -1.204015    0.000001
     10          1           0       -2.363291   -2.188507   -0.000000
     11          1           0       -3.657190   -0.068779   -0.000002
     12          1           0        0.120794   -2.125739    0.000001
     13          8           0        2.336554    1.158805   -0.000001
     14          1           0        3.271518   -0.901500   -0.000003
     15          8           0        2.315328   -1.091889   -0.000001
 ---------------------------------------------------------------------
 Rotational constants (GHZ):           3.8678422           1.2221067           0.9286765
 Leave Link  202 at Mon Sep 21 10:58:57 2026, MaxMem=  3758096384 cpu:               0.2 elap:               0.1
 (Enter /opt/software/gaussian/16RevA.03/g16/l301.exe)
 Standard basis: 6-31G(d) (6D, 7F)
 Ernie: Thresh=  0.10000D-02 Tol=  0.10000D-05 Strict=F.
 There are   147 symmetry adapted cartesian basis functions of A   symmetry.
 There are   147 symmetry adapted basis functions of A   symmetry.
   147 basis functions,   276 primitive gaussians,   147 cartesian basis functions
    32 alpha electrons       32 beta electrons
       nuclear repulsion energy       404.2843460262 Hartrees.
 IExCor=  402 DFT=T Ex+Corr=B3LYP ExCW=0 ScaHFX=  0.200000
 ScaDFX=  0.800000  0.720000  1.000000  0.810000 ScalE2=  1.000000  1.000000
 IRadAn=      5 IRanWt=     -1 IRanGd=            0 ICorTp=0 IEmpDi=  4
 NAtoms=   15 NActive=   15 NUniq=   15 SFac= 1.00D+00 NAtFMM=   60 NAOKFM=F Big=F
 Integral buffers will be    131072 words long.
 Raffenetti 2 integral format.
 Two-electron integral symmetry is turned on.
 Leave Link  301 at Mon Sep 21 10:58:58 2026, MaxMem=  3758096384 cpu:               0.4 elap:               0.1
 (Enter /opt/software/gaussian/16RevA.03/g16/l302.exe)
 NPDir=0 NMtPBC=     1 NCelOv=     1 NCel=       1 NClECP=     1 NCelD=      1
         NCelK=      1 NCelE2=     1 NClLst=     1 CellRange=     0.0.
 One-electron integrals computed using PRISM.
 One-electron integral symmetry used in STVInt
 NBasis=   147 RedAO= T EigKep=  4.72D-04  NBF=   147
 NBsUse=   147 1.00D-06 EigRej= -1.00D+00 NBFU=   147
 Precomputing XC quadrature grid using
 IXCGrd= 4 IRadAn=           5 IRanWt=          -1 IRanGd=           0 AccXCQ= 0.00D+00.
 Generated NRdTot=       0 NPtTot=           0 NUsed=           0 NTot=          32
 NSgBfM=   147   147   147   147   147 MxSgAt=    15 MxSgA2=    15.
 Leave Link  302 at Mon Sep 21 10:58:58 2026, MaxMem=  3758096384 cpu:               0.9 elap:               0.2
 (Enter /opt/software/gaussian/16RevA.03/g16/l303.exe)
 DipDrv:  MaxL=1.
 Leave Link  303 at Mon Sep 21 10:58:58 2026, MaxMem=  3758096384 cpu:               0.2 elap:               0.1
 (Enter /opt/software/gaussian/16RevA.03/g16/l401.exe)
 Initial guess from the checkpoint file:  "job.chk"
 B after Tr=     0.000000   -0.000000    0.000000
         Rot=    1.000000    0.000000    0.000000   -0.000000 Ang=   0.00 deg.
 Guess basis will be translated and rotated to current coordinates.
 JPrj=2 DoOrth=T DoCkMO=T.
 Leave Link  401 at Mon Sep 21 10:58:59 2026, MaxMem=  3758096384 cpu:               0.7 elap:               0.2
 (Enter /opt/software/gaussian/16RevA.03/g16/l502.exe)
 Keep R1 ints in memory in canonical form, NReq=64027576.
 FoFCou: FMM=F IPFlag=           0 FMFlag=           0 FMFlg1=           0
         NFxFlg=           0 DoJE=F BraDBF=F KetDBF=F FulRan=T
         wScrn=  0.000000 ICntrl=       600 IOpCl=  0 I1Cent=           0 NGrid=           0
         NMat0=    1 NMatS0=  10878 NMatT0=    0 NMatD0=    1 NMtDS0=    0 NMtDT0=    0
 Symmetry not used in FoFCou.
 Two-electron integral symmetry not used.
 Closed shell SCF:
 Using DIIS extrapolation, IDIIS=  1040.
 NGot=  3758096384 LenX=  3698879719 LenY=  3698857669
 Requested convergence on RMS density matrix=1.00D-08 within 128 cycles.
 Requested convergence on MAX density matrix=1.00D-06.
 Requested convergence on             energy=1.00D-06.
 No special actions if energy rises.

 Cycle   1  Pass 1  IDiag  1:
 E= -420.822131922245    
 DIIS: error= 9.32D-09 at cycle   1 NSaved=   1.
 NSaved= 1 IEnMin= 1 EnMin= -420.822131922245     IErMin= 1 ErrMin= 9.32D-09
 ErrMax= 9.32D-09  0.00D+00 EMaxC= 1.00D-01 BMatC= 7.74D-15 BMatP= 7.74D-15
 IDIUse=1 WtCom= 1.00D+00 WtEn= 0.00D+00
 Coeff-Com:  0.100D+01
 Coeff:      0.100D+01
 Gap=     0.212 Goal=   None    Shift=    0.000
 RMSDP=1.72D-09 MaxDP=3.42D-08              OVMax= 1.02D-07

 SCF Done:  E(RB3LYP) =  -420.822131922     A.U. after    1 cycles
            NFock=  1  Conv=0.17D-08     -V/T= 2.0093
 KE= 4.169334336375D+02 PE=-1.789530420618D+03 EE= 5.474905090322D+02
 Leave Link  502 at Mon Sep 21 10:59:00 2026, MaxMem=  3758096384 cpu:               5.6 elap:               1.3
 (Enter /opt/software/gaussian/16RevA.03/g16/l801.exe)
 DoSCS=F DFT=T ScalE2(SS,OS)=  1.000000  1.000000
 Range of M.O.s used for correlation:     1   147
 NBasis=   147 NAE=    32 NBE=    32 NFC=     0 NFV=     0
 NROrb=    147 NOA=    32 NOB=    32 NVA=   115 NVB=   115

 **** Warning!!: The largest alpha MO coefficient is  0.10792556D+02

 Leave Link  801 at Mon Sep 21 10:59:00 2026, MaxMem=  3758096384 cpu:               0.1 elap:               0.1
 (Enter /opt/software/gaussian/16RevA.03/g16/l1002.exe)
 Minotr:  Closed shell wavefunction.
          Direct CPHF calculation.
          Differentiating once with respect to electric field.
                with respect to dipole field.
          Electric field/nuclear overlap derivatives assumed to be zero.
          Requested convergence is 1.0D-08 RMS, and 1.0D-07 maximum.
          Secondary convergence is 1.0D-12 RMS, and 1.0D-12 maximum.
          NewPWx=F KeepS1=T KeepF1=T KeepIn=T MapXYZ=F SortEE=F KeepMc=T.
         4436 words used for storage of precomputed grid.
 Keep R1 ints in memory in canonical form, NReq=64017685.
 FoFCou: FMM=F IPFlag=           0 FMFlag=           0 FMFlg1=           0
         NFxFlg=           0 DoJE=F BraDBF=F KetDBF=F FulRan=T
         wScrn=  0.000000 ICntrl=       600 IOpCl=  0 I1Cent=           0 NGrid=           0
         NMat0=    1 NMatS0=  10878 NMatT0=    0 NMatD0=    1 NMtDS0=    0 NMtDT0=    0
 Symmetry not used in FoFCou.
 Two-electron integral symmetry not used.
          MDV=    3758096384 using IRadAn=       1.
          Solving linear equations simultaneously, MaxMat=       0.
          There are     3 degrees of freedom in the 1st order CPHF.  IDoFFX=0 NUNeed=     3.
      3 vectors produced by pass  0 Test12= 1.23D-13 3.33D-08 XBig12= 1.31D+02 7.61D+00.
 AX will form     3 AO Fock derivatives at one time.
      3 vectors produced by pass  1 Test12= 1.23D-13 3.33D-08 XBig12= 4.50D+01 1.94D+00.
      3 vectors produced by pass  2 Test12= 1.23D-13 3.33D-08 XBig12= 7.58D+00 1.14D+00.
      3 vectors produced by pass  3 Test12= 1.23D-13 3.33D-08 XBig12= 5.65D+00 6.09D-01.
      3 vectors produced by pass  4 Test12= 1.23D-13 3.33D-08 XBig12= 1.94D-01 1.41D-01.
      3 vectors produced by pass  5 Test12= 1.23D-13 3.33D-08 XBig12= 5.67D-02 9.29D-02.
      3 vectors produced by pass  6 Test12= 1.23D-13 3.33D-08 XBig12= 8.26D-03 3.24D-02.
      3 vectors produced by pass  7 Test12= 1.23D-13 3.33D-08 XBig12= 1.84D-03 1.03D-02.
      3 vectors produced by pass  8 Test12= 1.23D-13 3.33D-08 XBig12= 2.06D-04 3.51D-03.
      3 vectors produced by pass  9 Test12= 1.23D-13 3.33D-08 XBig12= 9.64D-06 6.76D-04.
      3 vectors produced by pass 10 Test12= 1.23D-13 3.33D-08 XBig12= 2.97D-07 1.07D-04.
      2 vectors produced by pass 11 Test12= 1.23D-13 3.33D-08 XBig12= 7.01D-09 1.71D-05.
      2 vectors produced by pass 12 Test12= 1.23D-13 3.33D-08 XBig12= 2.63D-10 3.10D-06.
      2 vectors produced by pass 13 Test12= 1.23D-13 3.33D-08 XBig12= 5.06D-12 4.19D-07.
      2 vectors produced by pass 14 Test12= 1.23D-13 3.33D-08 XBig12= 1.62D-13 7.44D-08.
 InvSVY:  IOpt=1 It=  1 EMax= 5.33D-15
 Solved reduced A of dimension    41 with     3 vectors.
 End of Minotr F.D. properties file   721 does not exist.
 End of Minotr F.D. properties file   722 does not exist.
 End of Minotr F.D. properties file   788 does not exist.
 Leave Link 1002 at Mon Sep 21 10:59:08 2026, MaxMem=  3758096384 cpu:              36.2 elap:               7.4
 (Enter /opt/software/gaussian/16RevA.03/g16/l1101.exe)
 Using compressed storage, NAtomX=    15.
 Will process     16 centers per pass.
 Leave Link 1101 at Mon Sep 21 10:59:08 2026, MaxMem=  3758096384 cpu:               0.6 elap:               0.2
 (Enter /opt/software/gaussian/16RevA.03/g16/l1102.exe)
 Symmetrizing basis deriv contribution to polar:
 IMax=3 JMax=2 DiffMx= 0.00D+00
 Leave Link 1102 at Mon Sep 21 10:59:09 2026, MaxMem=  3758096384 cpu:               0.2 elap:               0.1
 (Enter /opt/software/gaussian/16RevA.03/g16/l1110.exe)
 Forming Gx(P) for the SCF density, NAtomX=    15.
 Integral derivatives from FoFJK, PRISM(SPDF).
 Do as many integral derivatives as possible in FoFJK.
 G2DrvN: MDV=    3758095198.
 G2DrvN: will do    16 centers at a time, making    1 passes.
 PxScal for G2LodP:  IOpCl= 0 ISclPx=1 IMOff=     1 NMtTot=     4 NTT=   10878 ScalPx= 2.35D+00
 Calling FoFCou, ICntrl=  3107 FMM=F I1Cent=   0 AccDes= 0.00D+00.
 FoFJK:  IHMeth= 1 ICntrl=    3107 DoSepK=F KAlg= 0 I1Cent=           0 FoldK=F
 IRaf=         0 NMat=       1 IRICut=       1 DoRegI=T DoRafI=F ISym2E= 0 IDoP0=0 IntGTp=1.
 FoFCou: FMM=F IPFlag=           0 FMFlag=      100000 FMFlg1=           0
         NFxFlg=           0 DoJE=F BraDBF=F KetDBF=F FulRan=T
         wScrn=  0.000000 ICntrl=      3107 IOpCl=  0 I1Cent=           0 NGrid=           0
         NMat0=    1 NMatS0=      1 NMatT0=    0 NMatD0=    4 NMtDS0=    3 NMtDT0=    0
 Symmetry not used in FoFCou.
 End of G2Drv F.D. properties file   721 does not exist.
 End of G2Drv F.D. properties file   722 does not exist.
 End of G2Drv F.D. properties file   788 does not exist.
 Leave Link 1110 at Mon Sep 21 10:59:28 2026, MaxMem=  3758096384 cpu:              94.5 elap:              19.0
 (Enter /opt/software/gaussian/16RevA.03/g16/l1002.exe)
 Minotr:  Closed shell wavefunction.
          IDoAtm=111111111111111
          Direct CPHF calculation.
          Differentiating once with respect to electric field.
                with respect to dipole field.
          Differentiating once with respect to nuclear coordinates.
          Requested convergence is 1.0D-08 RMS, and 1.0D-07 maximum.
          Secondary convergence is 1.0D-12 RMS, and 1.0D-12 maximum.
          NewPWx=T KeepS1=F KeepF1=F KeepIn=T MapXYZ=F SortEE=F KeepMc=T.
         4436 words used for storage of precomputed grid.
 Keep R1 ints in memory in canonical form, NReq=64025645.
 FoFCou: FMM=F IPFlag=           0 FMFlag=           0 FMFlg1=           0
         NFxFlg=           0 DoJE=F BraDBF=F KetDBF=F FulRan=T
         wScrn=  0.000000 ICntrl=       600 IOpCl=  0 I1Cent=           0 NGrid=           0
         NMat0=    1 NMatS0=  10878 NMatT0=    0 NMatD0=    1 NMtDS0=    0 NMtDT0=    0
 Symmetry not used in FoFCou.
 Two-electron integral symmetry not used.
          MDV=    3758096384 using IRadAn=       1.
          Solving linear equations simultaneously, MaxMat=       0.
          There are    48 degrees of freedom in the 1st order CPHF.  IDoFFX=5 NUNeed=    48.
 Will reuse    3 saved solutions.
     42 vectors produced by pass  0 Test12= 7.67D-15 2.08D-09 XBig12= 1.97D-01 1.38D-01.
 AX will form    42 AO Fock derivatives at one time.
     42 vectors produced by pass  1 Test12= 7.67D-15 2.08D-09 XBig12= 2.16D-02 5.85D-02.
     42 vectors produced by pass  2 Test12= 7.67D-15 2.08D-09 XBig12= 2.66D-04 3.16D-03.
     42 vectors produced by pass  3 Test12= 7.67D-15 2.08D-09 XBig12= 8.77D-07 1.98D-04.
     42 vectors produced by pass  4 Test12= 7.67D-15 2.08D-09 XBig12= 1.62D-09 6.54D-06.
     37 vectors produced by pass  5 Test12= 7.67D-15 2.08D-09 XBig12= 1.23D-12 1.62D-07.
      7 vectors produced by pass  6 Test12= 7.67D-15 2.08D-09 XBig12= 8.19D-16 3.72D-09.
 InvSVY:  IOpt=1 It=  1 EMax= 1.11D-15
 Solved reduced A of dimension   254 with    42 vectors.
 FullF1:  Do perturbations      1 to       3.
 Isotropic polarizability for W=    0.000000       72.83 Bohr**3.
 FullF1:  Do perturbations      1 to       6.
 End of Minotr F.D. properties file   721 does not exist.
 End of Minotr F.D. properties file   722 does not exist.
 End of Minotr F.D. properties file   788 does not exist.
 Leave Link 1002 at Mon Sep 21 10:59:41 2026, MaxMem=  3758096384 cpu:              63.0 elap:              12.9
 (Enter /opt/software/gaussian/16RevA.03/g16/l601.exe)
 Copying SCF densities to generalized density rwf, IOpCl= 0 IROHF=0.

 **********************************************************************

            Population analysis using the SCF density.

 **********************************************************************

 Orbital symmetries:
       Occupied  (A) (A) (A) (A) (A) (A) (A) (A) (A) (A) (A) (A)
                 (A) (A) (A) (A) (A) (A) (A) (A) (A) (A) (A) (A)
                 (A) (A) (A) (A) (A) (A) (A) (A)
       Virtual   (A) (A) (A) (A) (A) (A) (A) (A) (A) (A) (A) (A)
                 (A) (A) (A) (A) (A) (A) (A) (A) (A) (A) (A) (A)
                 (A) (A) (A) (A) (A) (A) (A) (A) (A) (A) (A) (A)
                 (A) (A) (A) (A) (A) (A) (A) (A) (A) (A) (A) (A)
                 (A) (A) (A) (A) (A) (A) (A) (A) (A) (A) (A) (A)
                 (A) (A) (A) (A) (A) (A) (A) (A) (A) (A) (A) (A)
                 (A) (A) (A) (A) (A) (A) (A) (A) (A) (A) (A) (A)
                 (A) (A) (A) (A) (A) (A) (A) (A) (A) (A) (A) (A)
                 (A) (A) (A) (A) (A) (A) (A) (A) (A) (A) (A) (A)
                 (A) (A) (A) (A) (A) (A) (A)
 The electronic state is 1-A.
 Alpha  occ. eigenvalues --  -19.19614 -19.13683 -10.32118 -10.20851 -10.20479
 Alpha  occ. eigenvalues --  -10.20339 -10.20105 -10.20070 -10.20006  -1.10389
 Alpha  occ. eigenvalues --   -1.01177  -0.86524  -0.77113  -0.75522  -0.66200
 Alpha  occ. eigenvalues --   -0.61643  -0.58720  -0.53387  -0.49301  -0.47420
 Alpha  occ. eigenvalues --   -0.45600  -0.44664  -0.44272  -0.43094  -0.39997
 Alpha  occ. eigenvalues --   -0.37096  -0.36427  -0.35173  -0.31839  -0.27677
 Alpha  occ. eigenvalues --   -0.26248  -0.26038
 Alpha virt. eigenvalues --   -0.04802  -0.00916   0.05800   0.07412   0.09572
 Alpha virt. eigenvalues --    0.13980   0.15555   0.16934   0.18031   0.18764
 Alpha virt. eigenvalues --    0.24199   0.26915   0.28909   0.29815   0.30088
 Alpha virt. eigenvalues --    0.36613   0.37263   0.47822   0.50417   0.52869
 Alpha virt. eigenvalues --    0.54257   0.54417   0.55856   0.58300   0.58840
 Alpha virt. eigenvalues --    0.58876   0.60201   0.61071   0.62532   0.63356
 Alpha virt. eigenvalues --    0.65138   0.67866   0.69832   0.74753   0.76363
 Alpha virt. eigenvalues --    0.79549   0.81721   0.82582   0.83293   0.84655
 Alpha virt. eigenvalues --    0.87284   0.89355   0.91962   0.92751   0.93392
 Alpha virt. eigenvalues --    0.96875   0.99702   1.04050   1.04729   1.07968
 Alpha virt. eigenvalues --    1.09503   1.14725   1.17331   1.24214   1.25900
 Alpha virt. eigenvalues --    1.29852   1.30353   1.33357   1.39993   1.42189
 Alpha virt. eigenvalues --    1.43756   1.45128   1.47537   1.48149   1.50000
 Alpha virt. eigenvalues --    1.51948   1.67540   1.69121   1.76309   1.76724
 Alpha virt. eigenvalues --    1.77711   1.82852   1.86192   1.88341   1.89501
 Alpha virt. eigenvalues --    1.90278   1.93088   1.97141   2.01139   2.04787
 Alpha virt. eigenvalues --    2.06897   2.13570   2.13998   2.14167   2.15162
 Alpha virt. eigenvalues --    2.26260   2.28027   2.29789   2.30700   2.38579
 Alpha virt. eigenvalues --    2.47363   2.47998   2.58683   2.60250   2.60455
 Alpha virt. eigenvalues --    2.65322   2.69041   2.71521   2.73618   2.74944
 Alpha virt. eigenvalues --    2.82116   2.87920   2.97214   3.08740   3.15963
 Alpha virt. eigenvalues --    3.42158   3.85941   4.07134   4.09580   4.10511
 Alpha virt. eigenvalues --    4.22031   4.30737   4.37241   4.47584   4.70655
          Condensed to atoms (all electrons):
               1          2          3          4          5          6
     1  C    5.005294   0.492213  -0.042565  -0.039250   0.517336  -0.030530
     2  C    0.492213   4.905722  -0.025953   0.360589  -0.019562   0.537763
     3  C   -0.042565  -0.025953   4.887790   0.004459  -0.013501   0.543265
     4  H   -0.039250   0.360589   0.004459   0.583502   0.003442  -0.042836
     5  C    0.517336  -0.019562  -0.013501   0.003442   4.922289  -0.035680
     6  C   -0.030530   0.537763   0.543265  -0.042836  -0.035680   4.851775
     7  H    0.356385  -0.042931   0.000238  -0.004747  -0.040454   0.004358
     8  C   -0.044969   0.007589   0.004851  -0.000170   0.298293   0.000215
     9  C   -0.075890  -0.041250   0.504390   0.000828   0.498427  -0.033686
    10  H    0.000796   0.004490   0.359830  -0.000174   0.003388  -0.042616
    11  H    0.004536  -0.042476  -0.042424  -0.005402   0.000618   0.360493
    12  H    0.005555   0.000246  -0.044910   0.000016  -0.034697   0.004481
    13  O    0.001016   0.000851  -0.000064   0.000000  -0.091197  -0.000010
    14  H   -0.000278   0.000002   0.000010  -0.000000   0.011227   0.000001
    15  O    0.004531  -0.000056   0.000305   0.000000  -0.089318  -0.000001
               7          8          9         10         11         12
     1  C    0.356385  -0.044969  -0.075890   0.000796   0.004536   0.005555
     2  C   -0.042931   0.007589  -0.041250   0.004490  -0.042476   0.000246
     3  C    0.000238   0.004851   0.504390   0.359830  -0.042424  -0.044910
     4  H   -0.004747  -0.000170   0.000828  -0.000174  -0.005402   0.000016
     5  C   -0.040454   0.298293   0.498427   0.003388   0.000618  -0.034697
     6  C    0.004358   0.000215  -0.033686  -0.042616   0.360493   0.004481
     7  H    0.552986  -0.010020   0.005678   0.000017  -0.000154  -0.000159
     8  C   -0.010020   4.417580  -0.035600  -0.000137   0.000008  -0.010862
     9  C    0.005678  -0.035600   5.009257  -0.038774   0.004652   0.357469
    10  H    0.000017  -0.000137  -0.038774   0.585269  -0.005445  -0.005077
    11  H   -0.000154   0.000008   0.004652  -0.005445   0.586912  -0.000159
    12  H   -0.000159  -0.010862   0.357469  -0.005077  -0.000159   0.558227
    13  O    0.012938   0.570175   0.004069   0.000000  -0.000000   0.000093
    14  H   -0.000032  -0.008945  -0.000503  -0.000000  -0.000000  -0.000275
    15  O    0.000318   0.275856   0.000380  -0.000002   0.000000   0.008740
              13         14         15
     1  C    0.001016  -0.000278   0.004531
     2  C    0.000851   0.000002  -0.000056
     3  C   -0.000064   0.000010   0.000305
     4  H    0.000000  -0.000000   0.000000
     5  C   -0.091197   0.011227  -0.089318
     6  C   -0.000010   0.000001  -0.000001
     7  H    0.012938  -0.000032   0.000318
     8  C    0.570175  -0.008945   0.275856
     9  C    0.004069  -0.000503   0.000380
    10  H    0.000000  -0.000000  -0.000002
    11  H   -0.000000  -0.000000   0.000000
    12  H    0.000093  -0.000275   0.008740
    13  O    8.060439   0.011413  -0.095455
    14  H    0.011413   0.356053   0.219563
    15  O   -0.095455   0.219563   8.258501
 Mulliken charges:
               1
     1  C   -0.154178
     2  C   -0.137236
     3  C   -0.135720
     4  H    0.139743
     5  C    0.069389
     6  C   -0.116992
     7  H    0.165580
     8  C    0.536137
     9  C   -0.159445
    10  H    0.138435
    11  H    0.138842
    12  H    0.161310
    13  O   -0.474267
    14  H    0.411763
    15  O   -0.583362
 Sum of Mulliken charges =  -0.00000
 Mulliken charges with hydrogens summed into heavy atoms:
               1
     1  C    0.011403
     2  C    0.002507
     3  C    0.002715
     5  C    0.069389
     6  C    0.021851
     8  C    0.536137
     9  C    0.001865
    13  O   -0.474267
    15  O   -0.171599
 APT charges:
               1
     1  C    0.007181
     2  C   -0.050747
     3  C   -0.059058
     4  H    0.020924
     5  C   -0.216662
     6  C    0.036102
     7  H    0.067367
     8  C    1.263617
     9  C    0.016856
    10  H    0.019585
    11  H    0.021258
    12  H    0.058159
    13  O   -0.765478
    14  H    0.297986
    15  O   -0.717091
 Sum of APT charges =   0.00000
 APT charges with hydrogens summed into heavy atoms:
               1
     1  C    0.074548
     2  C   -0.029823
     3  C   -0.039473
     5  C   -0.216662
     6  C    0.057360
     8  C    1.263617
     9  C    0.075015
    13  O   -0.765478
    15  O   -0.419105
 Electronic spatial extent (au):  <R**2>=           1178.1870
 Charge=             -0.0000 electrons
 Dipole moment (field-independent basis, Debye):
    X=             -1.3627    Y=             -1.3504    Z=              0.0000  Tot=              1.9185
 Quadrupole moment (field-independent basis, Debye-Ang):
   XX=            -43.3204   YY=            -49.5658   ZZ=            -53.0225
   XY=             -5.1597   XZ=              0.0000   YZ=              0.0000
 Traceless Quadrupole moment (field-independent basis, Debye-Ang):
   XX=              5.3158   YY=             -0.9296   ZZ=             -4.3863
   XY=             -5.1597   XZ=              0.0000   YZ=              0.0000
 Octapole moment (field-independent basis, Debye-Ang**2):
  XXX=             24.4877  YYY=             -1.7287  ZZZ=             -0.0000  XYY=             -6.8461
  XXY=            -18.1706  XXZ=             -0.0001  XZZ=             11.5631  YZZ=              0.2354
  YYZ=             -0.0000  XYZ=              0.0000
 Hexadecapole moment (field-independent basis, Debye-Ang**3):
 XXXX=           -878.5214 YYYY=           -365.9352 ZZZZ=            -50.3859 XXXY=            -64.9686
 XXXZ=             -0.0001 YYYX=             -6.9280 YYYZ=              0.0000 ZZZX=             -0.0000
 ZZZY=              0.0000 XXYY=           -240.3768 XXZZ=           -192.0324 YYZZ=            -77.9434
 XXYZ=              0.0001 YYXZ=             -0.0000 ZZXY=             -0.1104
 N-N= 4.042843460262D+02 E-N=-1.789530420797D+03  KE= 4.169334336375D+02
  Exact polarizability: 106.619   0.884  84.293   0.000  -0.000  27.585
 Approx polarizability: 164.447   6.365 151.238   0.000  -0.000  42.011
 No NMR shielding tensors so no spin-rotation constants.
 Leave Link  601 at Mon Sep 21 10:59:41 2026, MaxMem=  3758096384 cpu:               0.7 elap:               0.2
 (Enter /opt/software/gaussian/16RevA.03/g16/l701.exe)
 ... and contract with generalized density number  0.
 Compute integral second derivatives.
 Leave Link  701 at Mon Sep 21 10:59:42 2026, MaxMem=  3758096384 cpu:               0.6 elap:               0.2
 (Enter /opt/software/gaussian/16RevA.03/g16/l702.exe)
 L702 exits ... SP integral derivatives will be done elsewhere.
 Leave Link  702 at Mon Sep 21 10:59:42 2026, MaxMem=  3758096384 cpu:               0.1 elap:               0.0
 (Enter /opt/software/gaussian/16RevA.03/g16/l703.exe)
 Integral derivatives from FoFJK, PRISM(SPDF).
 Compute integral second derivatives, UseDBF=F ICtDFT=           0.
 Calling FoFJK, ICntrl=    100127 FMM=F ISym2X=0 I1Cent= 0 IOpClX= 0 NMat=1 NMatS=1 NMatT=0.
 FoFJK:  IHMeth= 1 ICntrl=  100127 DoSepK=F KAlg= 0 I1Cent=           0 FoldK=F
 IRaf=         0 NMat=       1 IRICut=       1 DoRegI=T DoRafI=F ISym2E= 0 IDoP0=0 IntGTp=1.
 FoFCou: FMM=F IPFlag=           0 FMFlag=      100000 FMFlg1=         800
         NFxFlg=           0 DoJE=F BraDBF=F KetDBF=F FulRan=T
         wScrn=  0.000000 ICntrl=    100127 IOpCl=  0 I1Cent=           0 NGrid=           0
         NMat0=    1 NMatS0=      1 NMatT0=    0 NMatD0=    1 NMtDS0=    0 NMtDT0=    0
 Symmetry not used in FoFCou.
 Leave Link  703 at Mon Sep 21 11:00:10 2026, MaxMem=  3758096384 cpu:             137.6 elap:              27.6
 (Enter /opt/software/gaussian/16RevA.03/g16/l716.exe)
 Dipole        =-5.36136925D-01-5.31273631D-01 6.94594785D-07
 Polarizability= 1.06618522D+02 8.84231955D-01 8.42926788D+01
                 5.91937009D-06-6.02762511D-06 2.75850552D+01
 HyperPolar    = 2.54542388D+02-1.36076908D+01-5.40223132D+01
                 1.49545362D+00 6.52654421D-05 2.63433467D-05
                 6.64156089D-05-9.81912383D-01-1.00583964D+00
                 9.71926987D-05
 Full mass-weighted force constant matrix:
 Low frequencies ---   -3.8393   -3.5487   -0.0011   -0.0006    0.0012    1.5541
 Low frequencies ---   69.5436  160.4042  215.6885
 Diagonal vibrational polarizability:
       12.4882920       6.2303462      17.8097128
 Diagonal vibrational hyperpolarizability:
      -79.9576845      -7.7919317      -0.0003654
 Harmonic frequencies (cm**-1), IR intensities (KM/Mole), Raman scattering
 activities (A**4/AMU), depolarization ratios for plane and unpolarized
 incident light, reduced masses (AMU), force constants (mDyne/A),
 and normal coordinates:
                      1                      2                      3
                      A                      A                      A
 Frequencies --     69.5435               160.4042               215.6885
 Red. masses --      7.0562                 4.5340                 5.5402
 Frc consts  --      0.0201                 0.0687                 0.1519
 IR Inten    --      0.9003                 0.4719                 1.3520
 Raman Activ --      1.2413                 3.1123                 0.0644
 Depolar (P) --      0.7500                 0.7500                 0.7045
 Depolar (U) --      0.8571                 0.8571                 0.8266
  Atom  AN      X      Y      Z        X      Y      Z        X      Y      Z
     1   6    -0.00   0.00   0.17     0.00   0.00   0.23     0.13  -0.14   0.00
     2   6    -0.00   0.00   0.21     0.00  -0.00  -0.05     0.13   0.06  -0.00
     3   6     0.00   0.00  -0.20     0.00  -0.00  -0.05    -0.15   0.05   0.00
     4   1    -0.00   0.00   0.37     0.00  -0.00  -0.15     0.26   0.13  -0.00
     5   6    -0.00   0.00  -0.01    -0.00   0.00   0.29    -0.00  -0.22   0.00
     6   6    -0.00   0.00   0.01     0.00  -0.00  -0.26    -0.01   0.14  -0.00
     7   1    -0.00   0.00   0.30    -0.00   0.00   0.30     0.26  -0.22  -0.00
     8   6    -0.00   0.00  -0.03     0.00   0.00   0.04    -0.01  -0.05   0.00
     9   6     0.00   0.00  -0.19     0.00   0.00   0.23    -0.13  -0.15   0.00
    10   1     0.00   0.00  -0.36     0.00  -0.00  -0.17    -0.28   0.12   0.00
    11   1    -0.00  -0.00   0.02     0.00  -0.00  -0.56    -0.01   0.26  -0.00
    12   1     0.00   0.00  -0.33     0.00   0.00   0.31    -0.25  -0.22   0.00
    13   8    -0.00  -0.00  -0.38    -0.00  -0.00  -0.16    -0.26   0.10  -0.00
    14   1     0.00  -0.00   0.30    -0.00   0.00  -0.38     0.23   0.34  -0.00
    15   8     0.00  -0.00   0.39    -0.00   0.00  -0.12     0.28   0.10  -0.00
                      4                      5                      6
                      A                      A                      A
 Frequencies --    384.0655               416.6706               436.7840
 Red. masses --      7.9064                 2.9547                 3.1710
 Frc consts  --      0.6871                 0.3022                 0.3564
 IR Inten    --      5.4818                 0.4539                 6.7396
 Raman Activ --      3.7851                 0.0472                 0.9321
 Depolar (P) --      0.3402                 0.7500                 0.7500
 Depolar (U) --      0.5077                 0.8571                 0.8571
  Atom  AN      X      Y      Z        X      Y      Z        X      Y      Z
     1   6    -0.18  -0.04   0.00     0.00  -0.00  -0.21    -0.00  -0.00  -0.11
     2   6    -0.22  -0.06   0.00    -0.00   0.00   0.22    -0.00  -0.00  -0.11
     3   6    -0.20   0.06   0.00     0.00  -0.00  -0.20    -0.00   0.00  -0.15
     4   1    -0.16  -0.02   0.00    -0.00   0.00   0.46    -0.00  -0.00  -0.29
     5   6     0.02   0.03  -0.00     0.00  -0.00  -0.02     0.00   0.00   0.27
     6   6    -0.31  -0.01  -0.00    -0.00  -0.00  -0.01    -0.00  -0.00   0.21
     7   1    -0.32   0.04   0.00     0.00  -0.00  -0.44    -0.00   0.00  -0.34
     8   6     0.20  -0.02  -0.00     0.00   0.00  -0.01     0.00  -0.00   0.16
     9   6    -0.16   0.09   0.00    -0.00   0.00   0.22    -0.00   0.00  -0.07
    10   1    -0.10   0.00   0.00     0.00  -0.00  -0.40     0.00  -0.00  -0.36
    11   1    -0.31  -0.03  -0.00    -0.00   0.00  -0.03    -0.00  -0.00   0.44
    12   1    -0.25   0.03   0.00    -0.00   0.00   0.50    -0.00   0.00  -0.26
    13   8     0.33  -0.09   0.00     0.00   0.00   0.01     0.00  -0.00  -0.05
    14   1     0.31   0.26   0.00     0.00  -0.00   0.10    -0.00   0.00  -0.46
    15   8     0.35   0.04  -0.00    -0.00   0.00  -0.01     0.00   0.00  -0.02
                      7                      8                      9
                      A                      A                      A
 Frequencies --    497.1994               611.4350               631.9970
 Red. masses --      7.2197                 1.2794                 6.3279
 Frc consts  --      1.0515                 0.2818                 1.4892
 IR Inten    --      5.7632                64.9995                 0.6767
 Raman Activ --      0.9873                 7.9585                 5.9021
 Depolar (P) --      0.5455                 0.7500                 0.7487
 Depolar (U) --      0.7059                 0.8571                 0.8563
  Atom  AN      X      Y      Z        X      Y      Z        X      Y      Z
     1   6     0.09  -0.23   0.00    -0.00  -0.00   0.04    -0.22  -0.24  -0.00
     2   6     0.10  -0.07  -0.00    -0.00  -0.00  -0.05    -0.26   0.21   0.00
     3   6    -0.14  -0.03  -0.00     0.00   0.00  -0.04     0.24   0.27   0.00
     4   1     0.25   0.02  -0.00     0.00   0.00  -0.17    -0.08   0.31   0.00
     5   6     0.05  -0.17   0.00     0.00   0.00   0.06     0.04  -0.14  -0.00
     6   6    -0.06   0.04   0.00    -0.00   0.00   0.06    -0.04   0.14  -0.00
     7   1     0.16  -0.28   0.00    -0.00  -0.00  -0.03    -0.12  -0.30  -0.00
     8   6     0.08   0.27  -0.00     0.00  -0.00  -0.08     0.03   0.00   0.00
     9   6    -0.10  -0.19  -0.00     0.00   0.00   0.03     0.24  -0.18  -0.00
    10   1    -0.23   0.02  -0.00     0.00   0.00  -0.15     0.13   0.33   0.00
    11   1    -0.06   0.17   0.00    -0.00  -0.00   0.07    -0.03  -0.27  -0.00
    12   1    -0.26  -0.28  -0.00    -0.00   0.00  -0.04     0.07  -0.28   0.00
    13   8     0.30   0.17  -0.00    -0.00   0.00  -0.00    -0.02   0.03   0.00
    14   1    -0.20  -0.28   0.00     0.00  -0.00   0.96     0.01  -0.16  -0.00
    15   8    -0.29   0.16   0.00     0.00  -0.00  -0.05    -0.01  -0.06   0.00
                     10                     11                     12
                      A                      A                      A
 Frequencies --    637.5650               704.8699               730.4833
 Red. masses --      4.8269                 2.3129                 1.8200
 Frc consts  --      1.1560                 0.6770                 0.5722
 IR Inten    --     51.9981                 1.5306               128.3719
 Raman Activ --      0.2583                 1.0372                 0.2847
 Depolar (P) --      0.4292                 0.7500                 0.7500
 Depolar (U) --      0.6006                 0.8571                 0.8571
  Atom  AN      X      Y      Z        X      Y      Z        X      Y      Z
     1   6     0.05  -0.08  -0.00     0.00  -0.00  -0.12     0.00  -0.00  -0.06
     2   6     0.03  -0.16   0.00    -0.00  -0.00   0.17     0.00  -0.00  -0.01
     3   6    -0.03   0.10   0.00    -0.00   0.00   0.17     0.00   0.00  -0.01
     4   1     0.15  -0.08   0.00     0.00  -0.00  -0.06     0.00   0.00   0.47
     5   6     0.20   0.04  -0.00    -0.00   0.00   0.14     0.00  -0.00   0.01
     6   6    -0.19  -0.03  -0.00    -0.00  -0.00  -0.11    -0.00  -0.00  -0.08
     7   1    -0.14   0.03   0.00     0.00  -0.00  -0.49    -0.00  -0.00   0.27
     8   6     0.19   0.00   0.00    -0.00  -0.00   0.06    -0.00  -0.00   0.21
     9   6    -0.01   0.18  -0.00     0.00   0.00  -0.12     0.00   0.00  -0.07
    10   1     0.17  -0.01   0.00     0.00   0.00  -0.06     0.00   0.00   0.50
    11   1    -0.19   0.02  -0.00     0.00  -0.00  -0.56    -0.00   0.00   0.39
    12   1    -0.13   0.11   0.00     0.00  -0.00  -0.49    -0.00   0.00   0.30
    13   8    -0.16   0.21   0.00     0.00  -0.00  -0.02    -0.00  -0.00  -0.07
    14   1     0.07  -0.74  -0.00     0.00   0.00   0.29     0.00   0.00   0.38
    15   8    -0.03  -0.21   0.00    -0.00   0.00  -0.03    -0.00   0.00  -0.07
                     13                     14                     15
                      A                      A                      A
 Frequencies --    778.2608               818.0497               869.1683
 Red. masses --      4.7524                 2.8059                 1.2461
 Frc consts  --      1.6960                 1.1063                 0.5547
 IR Inten    --      9.9771                 0.0419                 0.0613
 Raman Activ --     12.8350                 0.1190                 5.1470
 Depolar (P) --      0.1394                 0.7500                 0.7500
 Depolar (U) --      0.2446                 0.8571                 0.8571
  Atom  AN      X      Y      Z        X      Y      Z        X      Y      Z
     1   6    -0.08   0.16  -0.00    -0.00   0.00   0.05     0.00  -0.00  -0.07
     2   6    -0.10   0.20  -0.00    -0.00   0.00   0.01     0.00  -0.00  -0.08
     3   6    -0.10  -0.20  -0.00    -0.00  -0.00   0.02    -0.00   0.00   0.07
     4   1    -0.34   0.05   0.00    -0.00   0.00  -0.49    -0.00   0.00   0.55
     5   6    -0.09  -0.00   0.00     0.00  -0.00  -0.23    -0.00   0.00   0.00
     6   6     0.18   0.00  -0.00     0.00   0.00   0.11     0.00   0.00  -0.01
     7   1     0.03   0.11   0.00    -0.00   0.00   0.07    -0.00   0.00   0.44
     8   6     0.17   0.06   0.00     0.00   0.00   0.28    -0.00   0.00   0.00
     9   6    -0.07  -0.17  -0.00    -0.00  -0.00   0.06    -0.00  -0.00   0.07
    10   1    -0.35  -0.07   0.00    -0.00  -0.00  -0.53     0.00  -0.00  -0.50
    11   1     0.18   0.01   0.00     0.00  -0.00  -0.54    -0.00   0.00   0.04
    12   1     0.04  -0.11   0.00     0.00  -0.00   0.00     0.00  -0.00  -0.49
    13   8     0.02   0.18  -0.00    -0.00   0.00  -0.07    -0.00  -0.00  -0.00
    14   1     0.15  -0.60  -0.00     0.00  -0.00   0.13     0.00  -0.00   0.01
    15   8     0.07  -0.18  -0.00    -0.00  -0.00  -0.06     0.00  -0.00  -0.00
                     16                     17                     18
                      A                      A                      A
 Frequencies --    957.7663               985.8192              1010.3101
 Red. masses --      1.4084                 1.3526                 1.2761
 Frc consts  --      0.7612                 0.7745                 0.7674
 IR Inten    --      1.3549                 0.1147                 0.1017
 Raman Activ --      2.2229                 0.0314                 0.4739
 Depolar (P) --      0.7500                 0.7500                 0.7500
 Depolar (U) --      0.8571                 0.8571                 0.8571
  Atom  AN      X      Y      Z        X      Y      Z        X      Y      Z
     1   6    -0.00   0.00   0.07     0.00  -0.00  -0.10     0.00   0.00   0.06
     2   6    -0.00   0.00   0.03    -0.00  -0.00   0.07     0.00   0.00  -0.09
     3   6    -0.00  -0.00  -0.02     0.00   0.00  -0.09     0.00  -0.00  -0.07
     4   1     0.00  -0.00  -0.16     0.00  -0.00  -0.36    -0.00   0.00   0.54
     5   6     0.00   0.00  -0.07    -0.00   0.00   0.01     0.00  -0.00  -0.02
     6   6     0.00  -0.00  -0.11    -0.00   0.00   0.03    -0.00  -0.00   0.08
     7   1     0.00  -0.00  -0.43    -0.00   0.00   0.57     0.00   0.00  -0.43
     8   6     0.00   0.00   0.05    -0.00   0.00  -0.01     0.00  -0.00   0.02
     9   6    -0.00  -0.00   0.11    -0.00  -0.00   0.08     0.00  -0.00   0.04
    10   1    -0.00  -0.00   0.09    -0.00   0.00   0.53    -0.00  -0.00   0.43
    11   1    -0.00   0.00   0.62     0.00   0.00  -0.20     0.00  -0.00  -0.49
    12   1     0.00  -0.00  -0.60     0.00  -0.00  -0.45     0.00  -0.00  -0.27
    13   8    -0.00  -0.00  -0.01     0.00   0.00   0.00    -0.00  -0.00  -0.00
    14   1     0.00  -0.00   0.00     0.00  -0.00   0.01     0.00  -0.00   0.00
    15   8    -0.00   0.00  -0.01     0.00  -0.00   0.00    -0.00   0.00  -0.00
                     19                     20                     21
                      A                      A                      A
 Frequencies --   1020.0778              1053.7986              1103.7783
 Red. masses --      6.3012                 2.4502                 1.8994
 Frc consts  --      3.8631                 1.6031                 1.3634
 IR Inten    --      0.8613                11.1145                61.3625
 Raman Activ --     24.2756                10.5490                 0.1971
 Depolar (P) --      0.1014                 0.1070                 0.6512
 Depolar (U) --      0.1842                 0.1934                 0.7887
  Atom  AN      X      Y      Z        X      Y      Z        X      Y      Z
     1   6    -0.18  -0.36   0.00     0.06  -0.06  -0.00    -0.09  -0.07  -0.00
     2   6    -0.03   0.05  -0.00    -0.05   0.21  -0.00     0.09  -0.06   0.00
     3   6    -0.02  -0.05  -0.00    -0.03  -0.20   0.00    -0.03  -0.05  -0.00
     4   1    -0.00   0.05   0.00     0.25   0.41  -0.00     0.40   0.12   0.00
     5   6     0.03  -0.00   0.00     0.06  -0.00   0.00    -0.08   0.06  -0.00
     6   6     0.39   0.01   0.00    -0.14  -0.01  -0.00    -0.03   0.08  -0.00
     7   1    -0.17  -0.38  -0.00     0.38  -0.24   0.00    -0.33   0.05  -0.00
     8   6     0.02  -0.01   0.00     0.02  -0.02  -0.00    -0.07   0.07   0.00
     9   6    -0.20   0.35  -0.00     0.05   0.07   0.00     0.09  -0.02   0.00
    10   1     0.01  -0.05   0.00     0.31  -0.40   0.00    -0.14  -0.00  -0.00
    11   1     0.40   0.00  -0.00    -0.16  -0.04   0.00    -0.04   0.52  -0.00
    12   1    -0.18   0.38  -0.00     0.31   0.23   0.00     0.52   0.23   0.00
    13   8    -0.00  -0.01  -0.00    -0.02  -0.02   0.00     0.02   0.03  -0.00
    14   1    -0.00   0.01   0.00    -0.01  -0.01  -0.00    -0.00   0.14   0.00
    15   8    -0.00   0.01   0.00    -0.02   0.03   0.00     0.04  -0.09  -0.00
                     22                     23                     24
                      A                      A                      A
 Frequencies --   1128.7505              1194.8548              1202.4756
 Red. masses --      2.7903                 1.1063                 1.2797
 Frc consts  --      2.0946                 0.9306                 1.0902
 IR Inten    --     47.7699                 0.5555               132.8263
 Raman Activ --      0.9532                 7.6584                14.2256
 Depolar (P) --      0.1676                 0.7413                 0.1512
 Depolar (U) --      0.2871                 0.8514                 0.2627
  Atom  AN      X      Y      Z        X      Y      Z        X      Y      Z
     1   6    -0.06   0.02  -0.00     0.00  -0.01   0.00     0.02  -0.02   0.00
     2   6    -0.03   0.01  -0.00    -0.04  -0.03  -0.00    -0.01  -0.04  -0.00
     3   6    -0.10  -0.08  -0.00     0.03  -0.02   0.00    -0.03   0.04  -0.00
     4   1    -0.04   0.01  -0.00    -0.45  -0.28  -0.00    -0.22  -0.17  -0.00
     5   6     0.23   0.02   0.00     0.00  -0.00   0.00    -0.08  -0.01  -0.00
     6   6     0.03   0.05   0.00    -0.00   0.07  -0.00    -0.01  -0.00  -0.00
     7   1    -0.64   0.35  -0.00     0.18  -0.11   0.00     0.37  -0.22   0.00
     8   6     0.11  -0.12  -0.00     0.00  -0.00  -0.00     0.05  -0.03  -0.00
     9   6     0.08  -0.05   0.00     0.01  -0.00   0.00     0.04   0.03   0.00
    10   1    -0.41   0.08  -0.00     0.37  -0.20   0.00    -0.36   0.22  -0.00
    11   1     0.02   0.34  -0.00    -0.02   0.69  -0.00    -0.01  -0.03   0.00
    12   1     0.09  -0.06   0.00    -0.09  -0.06  -0.00     0.50   0.31   0.00
    13   8    -0.07  -0.08   0.00    -0.00  -0.00   0.00    -0.01  -0.03   0.00
    14   1    -0.02  -0.15  -0.00     0.00  -0.02  -0.00     0.09  -0.42  -0.00
    15   8    -0.07   0.15   0.00    -0.00   0.00   0.00     0.00   0.07   0.00
                     25                     26                     27
                      A                      A                      A
 Frequencies --   1224.1647              1353.3059              1368.4456
 Red. masses --      1.5750                 1.6176                 3.7976
 Frc consts  --      1.3907                 1.7455                 4.1901
 IR Inten    --    130.3940                 3.7942                 4.4681
 Raman Activ --     21.7688                 0.2891                 1.0787
 Depolar (P) --      0.3796                 0.3014                 0.7390
 Depolar (U) --      0.5504                 0.4632                 0.8499
  Atom  AN      X      Y      Z        X      Y      Z        X      Y      Z
     1   6     0.06  -0.02   0.00    -0.02  -0.02  -0.00     0.23  -0.10   0.00
     2   6    -0.06   0.01  -0.00    -0.06  -0.06  -0.00    -0.15  -0.08  -0.00
     3   6    -0.06  -0.01  -0.00     0.07  -0.06   0.00     0.15  -0.08   0.00
     4   1    -0.37  -0.18  -0.00     0.39   0.20   0.00    -0.10  -0.04  -0.00
     5   6     0.14   0.02   0.00    -0.00   0.19  -0.00     0.01   0.14  -0.00
     6   6     0.00  -0.00   0.00     0.00   0.01  -0.00    -0.01   0.23  -0.00
     7   1     0.25  -0.13   0.00     0.43  -0.27   0.00    -0.43   0.27  -0.00
     8   6    -0.06   0.03   0.00     0.01  -0.01  -0.00    -0.01   0.01  -0.00
     9   6     0.04   0.01   0.00     0.01  -0.02   0.00    -0.21  -0.11  -0.00
    10   1    -0.45   0.19  -0.00    -0.37   0.17  -0.00     0.06  -0.02   0.00
    11   1     0.00  -0.07  -0.00    -0.00   0.18  -0.00     0.01  -0.44   0.00
    12   1     0.12   0.05   0.00    -0.44  -0.31  -0.00     0.43   0.29   0.00
    13   8     0.01   0.03  -0.00    -0.02  -0.02   0.00    -0.01  -0.01   0.00
    14   1    -0.14   0.65   0.00     0.03  -0.11  -0.00     0.03  -0.08  -0.00
    15   8    -0.02  -0.09  -0.00     0.01   0.01   0.00     0.01   0.00  -0.00
                     28                     29                     30
                      A                      A                      A
 Frequencies --   1394.7310              1498.3916              1543.0746
 Red. masses --      2.7182                 2.2563                 2.2594
 Frc consts  --      3.1154                 2.9847                 3.1698
 IR Inten    --    120.0651                16.5999                 1.6092
 Raman Activ --     13.3243                 1.6541                 1.0485
 Depolar (P) --      0.2943                 0.4775                 0.2578
 Depolar (U) --      0.4548                 0.6463                 0.4100
  Atom  AN      X      Y      Z        X      Y      Z        X      Y      Z
     1   6    -0.04   0.03  -0.00     0.09   0.06   0.00    -0.07   0.10  -0.00
     2   6    -0.00  -0.05  -0.00    -0.14   0.01  -0.00    -0.11  -0.11  -0.00
     3   6     0.05   0.02   0.00     0.15   0.00   0.00    -0.11   0.11  -0.00
     4   1     0.21   0.08   0.00     0.28   0.28   0.00     0.45   0.22   0.00
     5   6    -0.12   0.00  -0.00     0.01  -0.17   0.00     0.15  -0.01   0.00
     6   6     0.01   0.01  -0.00    -0.00  -0.13   0.00     0.10  -0.00   0.00
     7   1     0.11  -0.06   0.00    -0.12   0.20  -0.00     0.40  -0.15   0.00
     8   6     0.26  -0.20  -0.00    -0.04   0.02   0.00    -0.04   0.03  -0.00
     9   6    -0.05  -0.03  -0.00    -0.08   0.07  -0.00    -0.07  -0.10  -0.00
    10   1     0.10  -0.00   0.00    -0.35   0.29  -0.00     0.44  -0.18   0.00
    11   1     0.01   0.06  -0.00    -0.02   0.65  -0.00     0.13   0.02   0.00
    12   1     0.19   0.12   0.00     0.07   0.18  -0.00     0.42   0.19   0.00
    13   8    -0.00   0.09  -0.00     0.02   0.02  -0.00    -0.01  -0.02   0.00
    14   1    -0.22   0.82   0.00     0.00  -0.01  -0.00     0.01  -0.04  -0.00
    15   8    -0.10   0.01   0.00     0.00  -0.00  -0.00     0.01  -0.00  -0.00
                     31                     32                     33
                      A                      A                      A
 Frequencies --   1642.3362              1663.0197              1820.5579
 Red. masses --      5.6651                 5.5290                 9.7731
 Frc consts  --      9.0029                 9.0093                19.0849
 IR Inten    --      4.5821                17.6810               298.1402
 Raman Activ --      4.4738                66.7310                55.0263
 Depolar (P) --      0.6682                 0.5390                 0.2501
 Depolar (U) --      0.8011                 0.7005                 0.4001
  Atom  AN      X      Y      Z        X      Y      Z        X      Y      Z
     1   6    -0.10   0.18  -0.00     0.30  -0.09   0.00    -0.01   0.04   0.00
     2   6    -0.07  -0.21  -0.00    -0.27  -0.06  -0.00     0.00  -0.02   0.00
     3   6     0.05  -0.20   0.00    -0.28   0.07  -0.00     0.02  -0.02  -0.00
     4   1     0.25  -0.04   0.00     0.22   0.25   0.00     0.04   0.01   0.00
     5   6     0.01  -0.30   0.00    -0.21   0.01  -0.00    -0.06  -0.09  -0.00
     6   6    -0.00   0.37  -0.00     0.14  -0.02   0.00    -0.00   0.02  -0.00
     7   1     0.27  -0.01   0.00    -0.32   0.28  -0.00     0.06   0.01   0.00
     8   6    -0.05  -0.02   0.00     0.03  -0.01  -0.00     0.42   0.58  -0.00
     9   6     0.12   0.20   0.00     0.28   0.08   0.00    -0.01   0.03  -0.00
    10   1    -0.23  -0.08  -0.00     0.26  -0.23   0.00    -0.03   0.01  -0.00
    11   1     0.02  -0.52   0.00     0.15   0.03  -0.00    -0.00  -0.02  -0.00
    12   1    -0.32  -0.06  -0.00    -0.28  -0.28  -0.00    -0.03   0.03  -0.00
    13   8     0.03   0.03  -0.00     0.00   0.01  -0.00    -0.23  -0.37   0.00
    14   1     0.00  -0.03  -0.00    -0.00   0.03   0.00    -0.11   0.50   0.00
    15   8    -0.00  -0.00  -0.00    -0.00  -0.00   0.00    -0.03  -0.07  -0.00
                     34                     35                     36
                      A                      A                      A
 Frequencies --   3186.7094              3198.9303              3209.0086
 Red. masses --      1.0858                 1.0899                 1.0948
 Frc consts  --      6.4968                 6.5715                 6.6425
 IR Inten    --      0.4794                15.5653                21.7393
 Raman Activ --     57.5235               102.6010               140.4319
 Depolar (P) --      0.7438                 0.7480                 0.1432
 Depolar (U) --      0.8531                 0.8558                 0.2506
  Atom  AN      X      Y      Z        X      Y      Z        X      Y      Z
     1   6     0.00   0.01   0.00     0.01   0.01   0.00    -0.01  -0.02  -0.00
     2   6     0.02  -0.03   0.00     0.03  -0.05   0.00    -0.02   0.04  -0.00
     3   6     0.02   0.04   0.00    -0.03  -0.05  -0.00    -0.02  -0.04  -0.00
     4   1    -0.24   0.39  -0.00    -0.36   0.58  -0.00     0.25  -0.41   0.00
     5   6     0.00  -0.00   0.00     0.00   0.00  -0.00    -0.00   0.00  -0.00
     6   6    -0.06  -0.00  -0.00    -0.00   0.00  -0.00    -0.06  -0.00  -0.00
     7   1    -0.05  -0.08  -0.00    -0.08  -0.15  -0.00     0.11   0.20   0.00
     8   6    -0.00   0.00  -0.00     0.00   0.00  -0.00     0.00  -0.00   0.00
     9   6     0.00  -0.01   0.00    -0.00   0.01  -0.00    -0.01   0.01  -0.00
    10   1    -0.24  -0.43  -0.00     0.33   0.60   0.00     0.22   0.41   0.00
    11   1     0.72   0.02   0.00     0.03  -0.00   0.00     0.67   0.02   0.00
    12   1    -0.05   0.08  -0.00     0.08  -0.13   0.00     0.09  -0.15   0.00
    13   8     0.00  -0.00   0.00     0.00  -0.00   0.00    -0.00   0.00  -0.00
    14   1     0.00   0.00   0.00     0.00  -0.00  -0.00    -0.00  -0.00  -0.00
    15   8     0.00  -0.00  -0.00    -0.00  -0.00   0.00    -0.00   0.00   0.00
                     37                     38                     39
                      A                      A                      A
 Frequencies --   3227.0749              3232.2193              3699.0534
 Red. masses --      1.0932                 1.0932                 1.0642
 Frc consts  --      6.7077                 6.7291                 8.5790
 IR Inten    --      5.0906                 3.1497                71.5085
 Raman Activ --     80.3152               117.6391               154.4288
 Depolar (P) --      0.1713                 0.1742                 0.3140
 Depolar (U) --      0.2924                 0.2967                 0.4779
  Atom  AN      X      Y      Z        X      Y      Z        X      Y      Z
     1   6    -0.04  -0.07  -0.00     0.00   0.01   0.00    -0.00  -0.00   0.00
     2   6     0.02  -0.02   0.00    -0.00   0.01  -0.00     0.00   0.00  -0.00
     3   6    -0.00   0.00  -0.00    -0.01  -0.02  -0.00    -0.00  -0.00  -0.00
     4   1    -0.15   0.24  -0.00     0.03  -0.05   0.00     0.00  -0.00  -0.00
     5   6    -0.00   0.00  -0.00     0.00   0.00   0.00     0.00   0.00   0.00
     6   6     0.01   0.00   0.00    -0.01   0.00  -0.00     0.00  -0.00  -0.00
     7   1     0.47   0.82   0.00    -0.05  -0.09  -0.00     0.00   0.00   0.00
     8   6    -0.00  -0.00   0.00     0.00  -0.00  -0.00    -0.00   0.00   0.00
     9   6     0.01  -0.01   0.00     0.04  -0.07   0.00     0.00   0.00  -0.00
    10   1    -0.00  -0.01  -0.00     0.12   0.21   0.00     0.00   0.00   0.00
    11   1    -0.08  -0.00  -0.00     0.07   0.00   0.00     0.00  -0.00  -0.00
    12   1    -0.07   0.11  -0.00    -0.50   0.81  -0.00     0.00  -0.00  -0.00
    13   8    -0.00   0.00  -0.00    -0.00   0.00   0.00     0.00  -0.00   0.00
    14   1    -0.00  -0.00  -0.00     0.00   0.00   0.00     0.98   0.17  -0.00
    15   8     0.00   0.00  -0.00     0.00   0.00   0.00    -0.06  -0.01   0.00

 -------------------
 - Thermochemistry -
 -------------------
 Temperature   298.150 Kelvin.  Pressure   1.00000 Atm.
 Atom     1 has atomic number  6 and mass  12.00000
 Atom     2 has atomic number  6 and mass  12.00000
 Atom     3 has atomic number  6 and mass  12.00000
 Atom     4 has atomic number  1 and mass   1.00783
 Atom     5 has atomic number  6 and mass  12.00000
 Atom     6 has atomic number  6 and mass  12.00000
 Atom     7 has atomic number  1 and mass   1.00783
 Atom     8 has atomic number  6 and mass  12.00000
 Atom     9 has atomic number  6 and mass  12.00000
 Atom    10 has atomic number  1 and mass   1.00783
 Atom    11 has atomic number  1 and mass   1.00783
 Atom    12 has atomic number  1 and mass   1.00783
 Atom    13 has atomic number  8 and mass  15.99491
 Atom    14 has atomic number  1 and mass   1.00783
 Atom    15 has atomic number  8 and mass  15.99491
 Molecular mass:   122.03678 amu.
 Principal axes and moments of inertia in atomic units:
                           1         2         3
     Eigenvalues --   466.601571476.745981943.34755
           X            0.99995  -0.01017  -0.00000
           Y            0.01017   0.99995   0.00000
           Z            0.00000  -0.00000   1.00000
 This molecule is an asymmetric top.
 Rotational symmetry number  1.
 Warning -- assumption of classical behavior for rotation
           may cause significant error
 Rotational temperatures (Kelvin)      0.18563     0.05865     0.04457
 Rotational constants (GHZ):           3.86784     1.22211     0.92868
 Zero-point vibrational energy     304335.0 (Joules/Mol)
                                   72.73781 (Kcal/Mol)
 Warning -- explicit consideration of   8 degrees of freedom as
           vibrations may cause significant error
 Vibrational temperatures:    100.06   230.79   310.33   552.58   599.50
          (Kelvin)            628.43   715.36   879.72   909.30   917.31
                             1014.15  1051.00  1119.74  1176.99  1250.54
                             1378.01  1418.37  1453.61  1467.66  1516.18
                             1588.09  1624.02  1719.13  1730.09  1761.30
                             1947.11  1968.89  2006.71  2155.85  2220.14
                             2362.96  2392.71  2619.38  4584.96  4602.55
                             4617.05  4643.04  4650.44  5322.11
 
 Zero-point correction=                           0.115915 (Hartree/Particle)
 Thermal correction to Energy=                    0.123010
 Thermal correction to Enthalpy=                  0.123954
 Thermal correction to Gibbs Free Energy=         0.083904
 Sum of electronic and zero-point Energies=           -420.706217
 Sum of electronic and thermal Energies=              -420.699122
 Sum of electronic and thermal Enthalpies=            -420.698177
 Sum of electronic and thermal Free Energies=         -420.738228
 
                     E (Thermal)             CV                S
                      KCal/Mol        Cal/Mol-Kelvin    Cal/Mol-Kelvin
 Total                   77.190             27.189             84.293
 Electronic               0.000              0.000              0.000
 Translational            0.889              2.981             40.312
 Rotational               0.889              2.981             28.684
 Vibrational             75.413             21.228             15.297
 Vibration     1          0.598              1.969              4.166
 Vibration     2          0.622              1.891              2.545
 Vibration     3          0.645              1.817              1.995
 Vibration     4          0.753              1.504              1.023
 Vibration     5          0.780              1.434              0.903
 Vibration     6          0.797              1.390              0.837
 Vibration     7          0.853              1.256              0.665
 Vibration     8          0.971              1.008              0.430
                       Q            Log10(Q)             Ln(Q)
 Total Bot       0.255121D-38        -38.593254        -88.864250
 Total V=0       0.529584D+15         14.723935         33.903113
 Vib (Bot)       0.116228D-51        -51.934690       -119.584044
 Vib (Bot)    1  0.296585D+01          0.472149          1.087163
 Vib (Bot)    2  0.126019D+01          0.100437          0.231265
 Vib (Bot)    3  0.918723D+00         -0.036816         -0.084771
 Vib (Bot)    4  0.469424D+00         -0.328434         -0.756248
 Vib (Bot)    5  0.422480D+00         -0.374194         -0.861614
 Vib (Bot)    6  0.396792D+00         -0.401437         -0.924343
 Vib (Bot)    7  0.331378D+00         -0.479676         -1.104496
 Vib (Bot)    8  0.241335D+00         -0.617379         -1.421569
 Vib (V=0)       0.241267D+02          1.382498          3.183320
 Vib (V=0)    1  0.350770D+01          0.545022          1.254960
 Vib (V=0)    2  0.185576D+01          0.268522          0.618294
 Vib (V=0)    3  0.154597D+01          0.189201          0.435651
 Vib (V=0)    4  0.118583D+01          0.074021          0.170441
 Vib (V=0)    5  0.115459D+01          0.062428          0.143746
 Vib (V=0)    6  0.113831D+01          0.056262          0.129548
 Vib (V=0)    7  0.109984D+01          0.041331          0.095167
 Vib (V=0)    8  0.105520D+01          0.023333          0.053727
 Electronic      0.100000D+01          0.000000          0.000000
 Translational   0.529895D+08          7.724190         17.785605
 Rotational      0.414235D+06          5.617247         12.934189
 
                                            C7H6O2 | Equilibrium Geometry | B3LYP
 /6-31G(d)
                                                             IR Spectrum
 
     3             33333                                              1    11   11  111  111  11111                                  
     6             22211                                              8    66   54  333  221  1100099  88 777 666  4 443     2 1     
     9             32098                                              2    64   49  965  209  2052185  61 730 331  9 318     1 6  7  
     9             27997                                              1    32   38  583  425  9440068  98 805 821  7 774     6 0  0  
 
     X             XXXXX                                              X    XX   XX  XXX  XXX  XXXXXXX  X  XXX XXX  X XXX     X X  X  
     X                                                                X             X    XX   XX           X  X X                    
     X                                                                X             X    XX   XX           X  X X                    
     X                                                                X             X    XX    X           X    X                    
     X                                                                X             X    XX                X                         
                                                                      X             X    XX                X                         
                                                                      X             X    XX                X                         
                                                                      X             X    XX                X                         
                                                                      X                  XX                X                         
                                                                      X                                                              
                                                                      X                                                              
                                                                      X                                                              
                                                                      X                                                              
                                                                      X                                                              
                                                                      X                                                              
                                                                      X                                                              
                                                                      X                                                              
                                                                      X                                                              
                                                                      X                                                              
                                                                      X                                                              
 
 
                                            C7H6O2 | Equilibrium Geometry | B3LYP
 /6-31G(d)
                                                            Raman Spectrum
 
     3             33333                                              1    11   11  111  111  11111                                  
     6             22211                                              8    66   54  333  221  1100099  88 777 666  4 443     2 1     
     9             32098                                              2    64   49  965  209  2052185  61 730 331  9 318     1 6  7  
     9             27997                                              1    32   38  583  425  9440068  98 805 821  7 774     6 0  0  
 
     X             XXXXX                                              X    XX   XX  XXX  XXX  XXXXX X  XX XXX XXX  X X X     X X  X  
     X             XXXXX                                              X    X        X    XX      X        X                          
     X             XXXXX                                              X    X             X       X                                   
     X             XXXXX                                              X    X                                                         
     X             XXXXX                                              X    X                                                         
     X             XXXXX                                              X    X                                                         
     X             XXXXX                                              X    X                                                         
     X             XXXX                                                    X                                                         
     X             XXXX                                                    X                                                         
     X             XXXX                                                                                                              
     X             X XX                                                                                                              
     X             X XX                                                                                                              
     X             X XX                                                                                                              
     X             X X                                                                                                               
     X             X X                                                                                                               
     X               X                                                                                                               
     X               X                                                                                                               
     X               X                                                                                                               
     X                                                                                                                               
     X                                                                                                                               
 
 ***** Axes restored to original set *****
 -------------------------------------------------------------------
 Center     Atomic                   Forces (Hartrees/Bohr)
 Number     Number              X              Y              Z
 -------------------------------------------------------------------
      1        6           0.000111849    0.000016192   -0.000004405
      2        6          -0.000035507    0.000041853    0.000000229
      3        6          -0.000002695   -0.000048911    0.000001287
      4        1           0.000007849    0.000003626   -0.000000377
      5        6          -0.000050675   -0.000021787    0.000002638
      6        6           0.000019938   -0.000043279    0.000000354
      7        1          -0.000039028   -0.000028846    0.000002124
      8        6          -0.000017442    0.000100612   -0.000002827
      9        6          -0.000020479    0.000088786   -0.000001427
     10        1           0.000002383    0.000006751   -0.000000256
     11        1          -0.000001717   -0.000002567    0.000000129
     12        1           0.000002768   -0.000027797    0.000000594
     13        8           0.000010821   -0.000050590    0.000001234
     14        1          -0.000002694    0.000008740   -0.000000119
     15        8           0.000014628   -0.000042784    0.000000822
 -------------------------------------------------------------------
 Cartesian Forces:  Max     0.000111849 RMS     0.000033449
 FormGI is forming the generalized inverse of G from B-inverse, IUseBI=4.
 Leave Link  716 at Mon Sep 21 11:00:10 2026, MaxMem=  3758096384 cpu:               1.0 elap:               0.3
 (Enter /opt/software/gaussian/16RevA.03/g16/l103.exe)

 GradGradGradGradGradGradGradGradGradGradGradGradGradGradGradGradGradGrad
 Berny optimization.
 Red2BG is reusing G-inverse.
 Internal  Forces:  Max     0.000057147 RMS     0.000018496
 Search for a local minimum.
 Step number   1 out of a maximum of    2
 All quantities printed in internal units (Hartrees-Bohrs-Radians)
 Second derivative matrix not updated -- analytic derivatives used.
 ITU=  0
     Eigenvalues ---    0.00468   0.01649   0.01755   0.01795   0.02105
     Eigenvalues ---    0.02176   0.02406   0.02549   0.02732   0.02807
     Eigenvalues ---    0.02836   0.06655   0.11034   0.11478   0.11886
     Eigenvalues ---    0.12570   0.12883   0.15468   0.18781   0.19351
     Eigenvalues ---    0.19756   0.20816   0.24465   0.26406   0.29498
     Eigenvalues ---    0.35556   0.36029   0.36221   0.36279   0.36848
     Eigenvalues ---    0.37661   0.40766   0.42305   0.43657   0.47029
     Eigenvalues ---    0.47425   0.49924   0.51553   0.86961
 Angle between quadratic step and forces=  29.07 degrees.
 Linear search not attempted -- first point.
 Iteration  1 RMS(Cart)=  0.00018701 RMS(Int)=  0.00000004
 Iteration  2 RMS(Cart)=  0.00000004 RMS(Int)=  0.00000000
 ITry= 1 IFail=0 DXMaxC= 8.74D-04 DCOld= 1.00D+10 DXMaxT= 3.00D-01 DXLimC= 3.00D+00 Rises=F
 Variable       Old X    -DE/DX   Delta X   Delta X   Delta X     New X
                                 (Linear)    (Quad)   (Total)
    R1        2.63080   0.00000   0.00000   0.00002   0.00002   2.63082
    R2        2.64888  -0.00005   0.00000  -0.00015  -0.00015   2.64873
    R3        2.05045  -0.00000   0.00000  -0.00001  -0.00001   2.05044
    R4        2.05302  -0.00001   0.00000  -0.00002  -0.00002   2.05300
    R5        2.64114   0.00004   0.00000   0.00010   0.00010   2.64124
    R6        2.63997  -0.00001   0.00000  -0.00002  -0.00002   2.63995
    R7        2.63379   0.00004   0.00000   0.00011   0.00011   2.63389
    R8        2.05309  -0.00000   0.00000  -0.00002  -0.00002   2.05307
    R9        2.80853   0.00002   0.00000   0.00009   0.00009   2.80862
   R10        2.64940  -0.00002   0.00000  -0.00006  -0.00006   2.64934
   R11        2.05381   0.00000   0.00000   0.00001   0.00001   2.05381
   R12        2.29645  -0.00005   0.00000  -0.00009  -0.00009   2.29636
   R13        2.56822   0.00001   0.00000   0.00005   0.00005   2.56828
   R14        2.04912   0.00000   0.00000   0.00000   0.00000   2.04912
   R15        1.84241   0.00001   0.00000   0.00002   0.00002   1.84243
    A1        2.09516   0.00002   0.00000   0.00008   0.00008   2.09525
    A2        2.11804  -0.00006   0.00000  -0.00049  -0.00049   2.11755
    A3        2.06998   0.00004   0.00000   0.00041   0.00041   2.07039
    A4        2.09316  -0.00001   0.00000  -0.00007  -0.00007   2.09309
    A5        2.09350   0.00001   0.00000   0.00005   0.00005   2.09356
    A6        2.09652   0.00000   0.00000   0.00002   0.00002   2.09654
    A7        2.09630  -0.00001   0.00000  -0.00002  -0.00002   2.09628
    A8        2.09577   0.00001   0.00000   0.00009   0.00009   2.09587
    A9        2.09111   0.00000   0.00000  -0.00007  -0.00007   2.09104
   A10        2.05707   0.00003   0.00000   0.00017   0.00017   2.05724
   A11        2.09314  -0.00001   0.00000  -0.00012  -0.00012   2.09302
   A12        2.13298  -0.00002   0.00000  -0.00005  -0.00005   2.13293
   A13        2.09706  -0.00002   0.00000  -0.00012  -0.00012   2.09694
   A14        2.09335   0.00001   0.00000   0.00003   0.00003   2.09338
   A15        2.09278   0.00001   0.00000   0.00009   0.00009   2.09287
   A16        2.18239   0.00000   0.00000   0.00002   0.00002   2.18241
   A17        1.97438  -0.00004   0.00000  -0.00017  -0.00017   1.97421
   A18        2.12641   0.00004   0.00000   0.00015   0.00015   2.12656
   A19        2.09121   0.00002   0.00000   0.00013   0.00013   2.09134
   A20        2.10382  -0.00004   0.00000  -0.00033  -0.00033   2.10349
   A21        2.08816   0.00002   0.00000   0.00020   0.00020   2.08836
   A22        1.84135  -0.00001   0.00000  -0.00001  -0.00001   1.84134
    D1        3.14159   0.00000   0.00000   0.00000   0.00000   3.14159
    D2       -0.00000   0.00000   0.00000   0.00000   0.00000   0.00000
    D3        0.00000  -0.00000   0.00000  -0.00000  -0.00000   0.00000
    D4       -3.14159  -0.00000   0.00000  -0.00000  -0.00000   3.14159
    D5       -3.14159  -0.00000   0.00000  -0.00000  -0.00000   3.14159
    D6        0.00000  -0.00000   0.00000  -0.00000  -0.00000   0.00000
    D7        0.00000  -0.00000   0.00000  -0.00000  -0.00000   0.00000
    D8       -3.14159  -0.00000   0.00000  -0.00000  -0.00000   3.14159
    D9        0.00000  -0.00000   0.00000  -0.00000   0.00000   0.00000
   D10       -3.14159  -0.00000   0.00000  -0.00000  -0.00000   3.14159
   D11        3.14159  -0.00000   0.00000  -0.00000   0.00000   3.14159
   D12        0.00000  -0.00000   0.00000  -0.00000  -0.00000   0.00000
   D13       -0.00000   0.00000   0.00000   0.00000   0.00000   0.00000
   D14        3.14159   0.00000   0.00000   0.00000   0.00000   3.14159
   D15        3.14159   0.00000   0.00000  -0.00000   0.00000   3.14159
   D16       -0.00000   0.00000   0.00000   0.00000   0.00000   0.00000
   D17        0.00000  -0.00000   0.00000  -0.00000  -0.00000   0.00000
   D18        3.14159   0.00000   0.00000   0.00000   0.00000   3.14159
   D19       -3.14159  -0.00000   0.00000  -0.00000  -0.00000   3.14159
   D20       -0.00000   0.00000   0.00000   0.00000   0.00000   0.00000
   D21       -0.00000   0.00000   0.00000   0.00000   0.00000   0.00000
   D22       -3.14159  -0.00000   0.00000  -0.00000  -0.00000   3.14159
   D23        3.14159   0.00000   0.00000   0.00000   0.00000   3.14159
   D24        0.00000  -0.00000   0.00000  -0.00000  -0.00000   0.00000
   D25       -0.00000   0.00000   0.00000   0.00000   0.00000   0.00000
   D26        3.14159   0.00000   0.00000   0.00000   0.00000   3.14159
   D27        3.14159   0.00000   0.00000   0.00000   0.00000   3.14159
   D28       -0.00000   0.00000   0.00000   0.00000   0.00000   0.00000
   D29        3.14159   0.00000   0.00000   0.00000   0.00000  -3.14159
   D30        0.00000  -0.00000   0.00000  -0.00000  -0.00000   0.00000
         Item               Value     Threshold  Converged?
 Maximum Force            0.000057     0.000450     YES
 RMS     Force            0.000018     0.000300     YES
 Maximum Displacement     0.000874     0.001800     YES
 RMS     Displacement     0.000187     0.001200     YES
 Predicted change in Energy=-5.858470D-08
 Optimization completed.
    -- Stationary point found.
                           ----------------------------
                           !   Optimized Parameters   !
                           ! (Angstroms and Degrees)  !
 --------------------------                            --------------------------
 ! Name  Definition              Value          Derivative Info.                !
 --------------------------------------------------------------------------------
 ! R1    R(1,2)                  1.3922         -DE/DX =    0.0                 !
 ! R2    R(1,5)                  1.4017         -DE/DX =   -0.0001              !
 ! R3    R(1,7)                  1.085          -DE/DX =    0.0                 !
 ! R4    R(2,4)                  1.0864         -DE/DX =    0.0                 !
 ! R5    R(2,6)                  1.3976         -DE/DX =    0.0                 !
 ! R6    R(3,6)                  1.397          -DE/DX =    0.0                 !
 ! R7    R(3,9)                  1.3937         -DE/DX =    0.0                 !
 ! R8    R(3,10)                 1.0864         -DE/DX =    0.0                 !
 ! R9    R(5,8)                  1.4862         -DE/DX =    0.0                 !
 ! R10   R(5,9)                  1.402          -DE/DX =    0.0                 !
 ! R11   R(6,11)                 1.0868         -DE/DX =    0.0                 !
 ! R12   R(8,13)                 1.2152         -DE/DX =    0.0                 !
 ! R13   R(8,15)                 1.359          -DE/DX =    0.0                 !
 ! R14   R(9,12)                 1.0843         -DE/DX =    0.0                 !
 ! R15   R(14,15)                0.975          -DE/DX =    0.0                 !
 ! A1    A(2,1,5)              120.044          -DE/DX =    0.0                 !
 ! A2    A(2,1,7)              121.3546         -DE/DX =   -0.0001              !
 ! A3    A(5,1,7)              118.6014         -DE/DX =    0.0                 !
 ! A4    A(1,2,4)              119.9295         -DE/DX =    0.0                 !
 ! A5    A(1,2,6)              119.9489         -DE/DX =    0.0                 !
 ! A6    A(4,2,6)              120.1216         -DE/DX =    0.0                 !
 ! A7    A(6,3,9)              120.1094         -DE/DX =    0.0                 !
 ! A8    A(6,3,10)             120.079          -DE/DX =    0.0                 !
 ! A9    A(9,3,10)             119.8116         -DE/DX =    0.0                 !
 ! A10   A(1,5,8)              117.8616         -DE/DX =    0.0                 !
 ! A11   A(1,5,9)              119.9279         -DE/DX =    0.0                 !
 ! A12   A(8,5,9)              122.2105         -DE/DX =    0.0                 !
 ! A13   A(2,6,3)              120.1524         -DE/DX =    0.0                 !
 ! A14   A(2,6,11)             119.94           -DE/DX =    0.0                 !
 ! A15   A(3,6,11)             119.9075         -DE/DX =    0.0                 !
 ! A16   A(5,8,13)             125.0417         -DE/DX =    0.0                 !
 ! A17   A(5,8,15)             113.1239         -DE/DX =    0.0                 !
 ! A18   A(13,8,15)            121.8344         -DE/DX =    0.0                 !
 ! A19   A(3,9,5)              119.8174         -DE/DX =    0.0                 !
 ! A20   A(3,9,12)             120.5397         -DE/DX =    0.0                 !
 ! A21   A(5,9,12)             119.6429         -DE/DX =    0.0                 !
 ! A22   A(8,15,14)            105.5017         -DE/DX =    0.0                 !
 ! D1    D(5,1,2,4)            180.0            -DE/DX =    0.0                 !
 ! D2    D(5,1,2,6)              0.0            -DE/DX =    0.0                 !
 ! D3    D(7,1,2,4)              0.0            -DE/DX =    0.0                 !
 ! D4    D(7,1,2,6)            180.0            -DE/DX =    0.0                 !
 ! D5    D(2,1,5,8)            180.0            -DE/DX =    0.0                 !
 ! D6    D(2,1,5,9)              0.0            -DE/DX =    0.0                 !
 ! D7    D(7,1,5,8)              0.0            -DE/DX =    0.0                 !
 ! D8    D(7,1,5,9)            180.0            -DE/DX =    0.0                 !
 ! D9    D(1,2,6,3)              0.0            -DE/DX =    0.0                 !
 ! D10   D(1,2,6,11)           180.0            -DE/DX =    0.0                 !
 ! D11   D(4,2,6,3)            180.0            -DE/DX =    0.0                 !
 ! D12   D(4,2,6,11)             0.0            -DE/DX =    0.0                 !
 ! D13   D(9,3,6,2)              0.0            -DE/DX =    0.0                 !
 ! D14   D(9,3,6,11)           180.0            -DE/DX =    0.0                 !
 ! D15   D(10,3,6,2)           180.0            -DE/DX =    0.0                 !
 ! D16   D(10,3,6,11)            0.0            -DE/DX =    0.0                 !
 ! D17   D(6,3,9,5)              0.0            -DE/DX =    0.0                 !
 ! D18   D(6,3,9,12)           180.0            -DE/DX =    0.0                 !
 ! D19   D(10,3,9,5)           180.0            -DE/DX =    0.0                 !
 ! D20   D(10,3,9,12)            0.0            -DE/DX =    0.0                 !
 ! D21   D(1,5,8,13)            -0.0002         -DE/DX =    0.0                 !
 ! D22   D(1,5,8,15)           180.0002         -DE/DX =    0.0                 !
 ! D23   D(9,5,8,13)           179.9998         -DE/DX =    0.0                 !
 ! D24   D(9,5,8,15)             0.0002         -DE/DX =    0.0                 !
 ! D25   D(1,5,9,3)              0.0            -DE/DX =    0.0                 !
 ! D26   D(1,5,9,12)           180.0            -DE/DX =    0.0                 !
 ! D27   D(8,5,9,3)            180.0            -DE/DX =    0.0                 !
 ! D28   D(8,5,9,12)             0.0            -DE/DX =    0.0                 !
 ! D29   D(5,8,15,14)         -180.0002         -DE/DX =    0.0                 !
 ! D30   D(13,8,15,14)           0.0002         -DE/DX =    0.0                 !
 --------------------------------------------------------------------------------
 GradGradGradGradGradGradGradGradGradGradGradGradGradGradGradGradGradGrad

 Leave Link  103 at Mon Sep 21 11:00:10 2026, MaxMem=  3758096384 cpu:               0.5 elap:               0.2
 (Enter /opt/software/gaussian/16RevA.03/g16/l9999.exe)

 ----------------------------------------------------------------------

 Electric dipole moment (input orientation):
 (Debye = 10**-18 statcoulomb cm , SI units = C m)
                  (au)            (Debye)         (10**-30 SI)
   Tot        0.754781D+00      0.191846D+01      0.639930D+01
   x          0.203265D+00      0.516649D+00      0.172335D+01
   y         -0.726818D+00     -0.184739D+01     -0.616222D+01
   z          0.106534D-01      0.270782D-01      0.903233D-01

 Dipole polarizability, Alpha (input orientation).
 (esu units = cm**3 , SI units = C**2 m**2 J**-1)
 Alpha(0;0):
               (au)            (10**-24 esu)      (10**-40 SI)
   iso        0.728321D+02      0.107926D+02      0.120084D+02
   aniso      0.705875D+02      0.104600D+02      0.116383D+02
   xx         0.887439D+02      0.131505D+02      0.146319D+02
   yx         0.895942D+01      0.132765D+01      0.147721D+01
   yy         0.102026D+03      0.151187D+02      0.168218D+02
   zx        -0.242927D+01     -0.359981D+00     -0.400533D+00
   zy        -0.216588D+01     -0.320951D+00     -0.357106D+00
   zz         0.277263D+02      0.410862D+01      0.457146D+01

 First dipole hyperpolarizability, Beta (input orientation).
 ||, _|_  parallel and perpendicular components, (z) with respect to z axis,
 vector components x,y,z.  Values do not include the 1/n! factor of 1/2.
 (esu units = statvolt**-1 cm**4 , SI units = C**3 m**3 J**-2)
 Beta(0;0,0):
               (au)            (10**-30 esu)      (10**-50 SI)
   || (z)    -0.484070D+01     -0.418199D-01     -0.155210D-01
   _|_(z)    -0.161357D+01     -0.139400D-01     -0.517368D-02
   x          0.325352D+03      0.281079D+01      0.104320D+01
   y          0.503436D+03      0.434930D+01      0.161420D+01
   z         -0.242035D+02     -0.209099D+00     -0.776051D-01
   ||         0.119981D+03      0.103655D+01      0.384704D+00
   xxx       -0.233960D+02     -0.202123D+00     -0.750159D-01
   xxy        0.479624D+02      0.414358D+00      0.153785D+00
   yxy        0.131310D+03      0.113441D+01      0.421026D+00
   yyy        0.120822D+03      0.104381D+01      0.387399D+00
   xxz       -0.313660D+00     -0.270977D-02     -0.100571D-02
   yxz       -0.501997D+01     -0.433687D-01     -0.160958D-01
   yyz       -0.779669D+01     -0.673573D-01     -0.249990D-01
   zxz        0.537196D+00      0.464095D-02      0.172244D-02
   zyz       -0.972489D+00     -0.840154D-02     -0.311815D-02
   zzz        0.425193D-01      0.367333D-03      0.136332D-03

 ----------------------------------------------------------------------

 Dipole orientation:
     6         -0.58676177         -0.04396339         -4.10935003
     6         -2.34239448         -0.45744148         -2.19417499
     6          0.89918210          0.30599002          0.94574480
     1         -4.28671684         -0.91535538         -2.66831963
     6          1.92305807          0.54713291         -3.50274315
     6         -1.60069859         -0.28276532          0.33466053
     1         -1.11552278         -0.16849114         -6.08652807
     6          3.72015234          0.97037649         -5.61914380
     6          2.66365903          0.72155103         -0.96495045
     1          1.47328614          0.44119675          2.91228866
     1         -2.97150931         -0.60561205          1.82957863
     1          4.60745288          1.17934052         -0.50561970
     8          3.18475588          0.84427940         -7.84875176
     1          7.08719226          1.76334809         -6.36327949
     8          6.09795450          1.53037212         -4.82653148

 Electric dipole moment (dipole orientation):
 (Debye = 10**-18 statcoulomb cm , SI units = C m)
                  (au)            (Debye)         (10**-30 SI)
   Tot        0.754781D+00      0.191846D+01      0.639930D+01
   x          0.000000D+00      0.000000D+00      0.000000D+00
   y          0.000000D+00      0.000000D+00      0.000000D+00
   z          0.754781D+00      0.191846D+01      0.639930D+01

 Dipole polarizability, Alpha (dipole orientation).
 (esu units = cm**3 , SI units = C**2 m**2 J**-1)
 Alpha(0;0):
               (au)            (10**-24 esu)      (10**-40 SI)
   iso        0.728321D+02      0.107926D+02      0.120084D+02
   aniso      0.705875D+02      0.104600D+02      0.116383D+02
   xx         0.909548D+02      0.134781D+02      0.149964D+02
   yx         0.149244D+02      0.221157D+01      0.246070D+01
   yy         0.311000D+02      0.460854D+01      0.512769D+01
   zx        -0.108573D+02     -0.160889D+01     -0.179013D+01
   zy        -0.255711D+01     -0.378925D+00     -0.421611D+00
   zz         0.964415D+02      0.142912D+02      0.159011D+02

 First dipole hyperpolarizability, Beta (dipole orientation).
 ||, _|_  parallel and perpendicular components, (z) with respect to z axis,
 vector components x,y,z.  Values do not include the 1/n! factor of 1/2.
 (esu units = statvolt**-1 cm**4 , SI units = C**3 m**3 J**-2)
 Beta(0;0,0):
               (au)            (10**-30 esu)      (10**-50 SI)
   || (z)    -0.795016D+02     -0.686832D+00     -0.254911D+00
   _|_(z)    -0.265005D+02     -0.228944D+00     -0.849703D-01
   x          0.437340D+03      0.377828D+01      0.140227D+01
   y          0.103000D+03      0.889843D+00      0.330257D+00
   z         -0.397508D+03     -0.343416D+01     -0.127455D+01
   ||         0.119981D+03      0.103655D+01      0.384704D+00
   xxx        0.415405D+02      0.358877D+00      0.133194D+00
   xxy        0.977278D+01      0.844292D-01      0.313351D-01
   yxy        0.232307D+01      0.200695D-01      0.744861D-02
   yyy        0.557905D+00      0.481987D-02      0.178885D-02
   xxz       -0.107644D+03     -0.929962D+00     -0.345146D+00
   yxz       -0.256827D+02     -0.221879D+00     -0.823481D-01
   yyz       -0.464318D+01     -0.401134D-01     -0.148877D-01
   zxz        0.101917D+03      0.880479D+00      0.326781D+00
   zyz        0.240028D+02      0.207365D+00      0.769616D-01
   zzz       -0.202153D+02     -0.174644D+00     -0.648174D-01

 ----------------------------------------------------------------------
 1\1\GINC-CPU01\Freq\RB3LYP\6-31G(d)\C7H6O2\QC26\21-Sep-2026\0\\#p B3LY
 P/6-31G(d) Freq=Raman Geom=AllCheck Guess=Read Int=UltraFine SCF=Tight
 \\C7H6O2 | Equilibrium Geometry | B3LYP/6-31G(d)\\0,1\C,-0.8798652977,
 2.0126180025,0.0305233585\C,-1.5254871416,0.7803904158,0.0843250929\C,
 0.6179818393,-0.3463828542,0.0348460294\H,-2.6103318338,0.7381467653,0
 .1245275417\C,0.5197263201,2.0699204277,-0.0214123368\C,-0.7770476395,
 -0.3999526862,0.0865247492\H,-1.4382804441,2.9429384512,0.0276531148\C
 ,1.1583645374,3.4107400595,-0.0776494845\C,1.2688694102,0.8848531326,-
 0.0191212269\H,1.1986051214,-1.2646647201,0.036616753\H,-1.2812200376,
 -1.3618482392,0.1285300391\H,2.351326477,0.9345683805,-0.059422401\O,0
 .5605031915,4.4687227557,-0.0822592313\H,2.8139610187,4.2814896843,-0.
 1589658249\O,2.5153904789,3.3539854247,-0.1252301669\\Version=ES64L-G1
 6RevA.03\State=1-A\HF=-420.8221319\RMSD=1.719e-09\RMSF=3.345e-05\ZeroP
 oint=0.1159151\Thermal=0.1230103\Dipole=0.2032653,-0.7268179,0.0106534
 \DipoleDeriv=0.0092189,0.1276369,-0.006398,-0.0950066,0.0925852,-0.000
 855,-0.0008876,-0.0088919,-0.0802599,0.1736488,0.0188419,-0.0109883,0.
 0488151,-0.2084124,0.0004792,-0.01173,0.0015611,-0.1174788,-0.1215801,
 -0.1790717,0.004548,-0.1814112,0.0629927,0.0020591,0.0046058,0.0019748
 ,-0.1185857,-0.1088496,-0.0170805,0.0085073,-0.0074736,0.0568401,0.001
 7125,0.0082695,0.0020594,0.1147828,-0.188604,-0.2361839,0.0129904,-0.2
 199561,-0.4697545,0.0197973,0.0125884,0.0203824,0.0083735,0.0686938,0.
 0549877,-0.0068286,0.0430898,0.1219887,-0.0066236,-0.0065341,-0.007053
 1,-0.082376,0.0667647,0.0470556,0.0004984,0.066816,0.0225115,-0.000176
 1,0.0000092,0.0005371,0.1128247,1.6904138,0.3833067,-0.0592185,0.22295
 03,1.7845293,-0.0444772,-0.0552495,-0.0502663,0.3159075,0.0627765,-0.0
 433162,-0.0043278,0.1629553,0.0742235,-0.0098681,-0.0094336,-0.0024234
 ,-0.0864311,0.0130651,0.0799115,0.0016968,0.068435,-0.0690691,0.002082
 6,0.001981,0.0016683,0.1147595,0.0277426,-0.0734878,0.0048049,-0.07362
 85,-0.0740891,0.0072256,0.0048084,0.0072205,0.1101198,-0.0355163,-0.00
 10313,0.0054197,0.000962,0.0962685,0.0004024,0.0053703,0.0004743,0.113
 7245,-0.6950486,0.0043662,0.0117184,0.1073049,-1.2331036,0.0175527,0.0
 091691,0.0212707,-0.3682822,0.3652907,0.0921558,-0.003036,0.0064649,0.
 1842757,0.0037294,-0.000915,0.0006363,0.3443905,-1.3280164,-0.258091,0
 .0406134,-0.1503173,-0.4417865,0.0069592,0.037948,0.0108496,-0.381469\
 Polar=88.7438947,8.9594193,102.0260138,-2.4292709,-2.1658834,27.726347
 2\PolarDeriv=-1.1408592,-3.440489,-9.278822,0.0517465,0.4154348,-0.159
 7231,1.706784,-1.8272079,-4.3425443,-0.0559485,0.2236098,0.2160706,-0.
 1395231,0.1872088,0.5319136,-1.917578,1.7882698,0.0493684,0.0635714,-0
 .535043,-1.4571134,-0.1105117,0.0445456,-0.0930893,-1.0528364,2.542915
 1,7.4456852,-0.1068154,-0.2825357,-0.0159875,-0.2119049,-0.1327755,-0.
 1431349,-3.25352,-0.2227551,0.2508701,1.3516041,4.5732917,4.3787114,-0
 .1014907,-0.3731771,0.0359003,0.3241779,2.0936653,1.5489792,-0.0258388
 ,-0.1848967,-0.0838521,0.0625366,-0.2762641,-0.3339302,1.6578296,-2.76
 02975,0.0189803,-11.6719215,-0.9599599,-0.4345374,0.3668595,0.0301152,
 -0.4235841,-0.3705059,-1.7253412,-0.4074568,0.0120106,0.0684261,-0.018
 3439,0.3038185,0.0288394,0.0187832,-1.7654609,-0.142198,0.14937,1.6071
 572,3.8503784,10.2422769,-0.0940584,-0.2731812,-0.1098591,3.7222547,7.
 3578579,17.8090743,-0.2823632,-0.6290369,-0.2373308,-0.0233618,-0.1554
 929,-0.6429888,1.7613854,3.4057868,-0.2844692,-1.9965231,-1.3887612,-0
 .4584921,0.0343546,-0.0758331,-0.0534338,-1.5222073,-0.1624137,-3.7702
 783,0.0068264,0.0031711,-0.1123853,-0.0301021,-0.1296216,-0.076406,-1.
 9326745,-3.7562992,0.3308256,-2.5511429,2.8455073,-2.2252133,-0.018052
 5,-0.0118932,-0.2202792,2.4876922,-2.6524153,5.3027242,-0.0328031,0.00
 17327,0.3638941,-0.0329241,-0.017591,0.0056004,-0.8771459,1.1424101,0.
 0058526,-0.4962467,-2.7092882,-2.534722,0.1057696,0.1487221,0.6047678,
 -1.9584557,-5.4342164,-20.6847443,0.2027051,0.6885616,-0.0681587,0.063
 8462,0.204512,0.5666037,-0.0438557,-0.7682963,0.0194305,1.2996101,-0.1
 303512,2.5339744,0.0615359,-0.0731373,0.2805511,-2.1041829,-5.88765,-7
 .8334296,0.2864312,0.3909561,-0.0322135,0.1951138,0.1934068,0.0720463,
 2.6190079,-0.6226939,-0.1688918,2.7997159,-3.3176873,3.3916655,0.02082
 98,-0.0145608,0.215968,-1.9039304,3.6860941,-8.640013,-0.0131378,0.033
 9911,-0.34782,0.0100039,-0.0052774,0.0150151,0.8854728,-1.5437279,0.01
 32862,-2.6671901,-3.2571173,-3.2724934,0.1417285,0.1403705,-0.2026782,
 -1.9034584,-3.9788611,-9.4907811,0.1343211,0.3326133,-0.3887018,0.0872
 457,0.1434687,0.2798862,-0.7837433,-1.4891615,0.1462089,8.8696735,-0.3
 561179,0.4623352,-0.2441714,0.0112922,0.4241732,-0.2418686,1.338056,0.
 3427856,0.012309,-0.0564205,0.026747,-0.2099782,0.0150033,-0.025791,1.
 4497861,-0.012813,-0.1195312,-3.9578664,1.0137387,-7.2139219,0.0742229
 ,0.2651255,-0.3390108,3.3106446,2.393924,20.9865804,-0.1771891,-0.4998
 68,0.6628936,-0.0025239,0.0136618,-0.0790826,-0.8789581,3.6381784,-0.1
 20799,3.3621014,2.5532268,1.8468186,-0.1339022,-0.0755833,-0.0056178,4
 .9436347,5.5431715,7.1541468,-0.2817138,-0.3350003,-0.0120199,-0.14177
 28,-0.1319006,-0.1580128,1.4206633,1.7404986,-0.1871844,5.1283162,1.25
 8672,4.0195335,-0.1548605,-0.1582398,0.045915,-5.4377426,-3.2875783,-5
 .4207282,0.3212062,0.2446963,0.0472084,0.0695262,0.0628224,-0.0305022,
 1.6587913,-0.3969015,-0.1033171\HyperPolar=-23.3959727,47.9624244,131.
 3095821,120.8221468,-0.3136596,-5.0199725,-7.7966887,0.537196,-0.97248
 86,0.0425193\Quadrupole=3.6591618,-0.4159636,-3.2431982,3.9842051,-0.3
 484006,-0.2142272\PG=C01 [X(C7H6O2)]\NImag=0\\0.68215907,-0.02425693,0
 .74829459,-0.01898873,-0.01419391,0.14047716,-0.17938486,-0.12315114,0
 .00730444,0.74807756,-0.05713050,-0.30147559,0.00800257,0.00662316,0.6
 7405377,0.00567040,0.01038556,-0.06192341,-0.02244903,-0.01368822,0.13
 181593,-0.04826044,-0.02941210,0.00219790,-0.02977942,0.07443902,-0.00
 049030,0.69244018,-0.03125057,-0.02021030,0.00144167,0.02712735,0.0399
 7470,-0.00177843,-0.03337898,0.72748601,0.00224340,0.00137532,-0.00765
 069,0.00068069,-0.00348612,0.00774243,-0.01947368,-0.01358253,0.131071
 41,-0.01058790,0.00133875,0.00043415,-0.33949603,-0.01053632,0.0112087
 8,0.00047723,0.00332564,0.00015129,0.36016304,-0.03013115,0.00336019,0
 .00106277,-0.01060760,-0.06084799,0.00099341,0.00207060,-0.00458749,0.
 00021080,0.01163384,0.05990777,0.00121305,-0.00007312,0.00231633,0.011
 21054,0.00099084,-0.03660995,0.00018236,0.00016550,0.00693857,-0.01235
 737,-0.00126463,0.02625605,-0.32157689,0.02858654,0.00852810,-0.020870
 33,-0.07638835,0.00294167,0.05901416,0.02602833,-0.00246391,0.00098279
 ,-0.00148455,0.00026904,0.69469046,-0.02728454,-0.12343236,0.00241364,
 -0.02977341,0.02353978,0.00069618,-0.02127765,-0.05695609,0.00239052,-
 0.00290015,-0.00486820,0.00040879,-0.03213783,0.65823006,0.00991093,0.
 00039699,-0.06606970,0.00178792,0.00237875,0.00812516,-0.00129304,0.00
 068305,0.00862900,0.00030407,0.00035768,0.00739874,-0.01908912,-0.0115
 7277,0.14476452,0.06593244,0.02909408,-0.00285482,-0.19165370,0.060075
 42,0.00323020,-0.33857964,0.02681734,0.00935360,-0.01263766,0.02857025
 ,-0.00016364,-0.05101769,0.02623701,0.00089217,0.68746215,-0.01865589,
 -0.05798673,0.00227663,0.12772612,-0.27784451,0.00075768,-0.04095234,-
 0.13166689,0.00322599,-0.00314480,0.00574151,0.00003130,0.02596515,-0.
 01454138,-0.00078294,0.02970942,0.72828642,-0.00167297,0.00055312,0.00
 683658,0.00155581,0.00319948,-0.06110102,0.01103093,0.00077988,-0.0614
 6596,0.00062133,-0.00111344,0.00242502,0.00089890,-0.00079275,-0.00832
 182,-0.02066915,-0.01575173,0.13632964,-0.13731153,0.12582139,0.000428
 95,0.01262303,-0.01451746,0.00003628,-0.00055434,-0.00070599,0.0000241
 8,0.00085461,0.00051185,-0.00019198,-0.01226834,0.02834218,-0.00011820
 ,-0.00113909,-0.00310558,0.00038964,0.14192438,0.12805914,-0.26804192,
 0.00104298,0.01551748,-0.01706904,-0.00004671,-0.00087394,0.00011698,0
 .00001952,-0.00013922,0.00104840,-0.00012273,0.00021007,0.00503684,-0.
 00003593,-0.00362954,-0.00287748,0.00038851,-0.13706121,0.28287653,0.0
 0037355,0.00112375,-0.03919087,-0.00070709,0.00103739,0.00367326,0.000
 02833,0.00001346,-0.00036998,-0.00017586,-0.00014622,-0.00410315,0.000
 57810,-0.00105134,0.00389658,0.00040262,0.00036960,0.00750281,-0.00074
 606,-0.00137926,0.02733055,-0.01554624,-0.03290229,0.00142091,-0.00765
 450,0.00053629,0.00052203,0.00004426,0.00766863,0.00009050,-0.00023876
 ,-0.00122412,0.00006263,-0.12514694,-0.04951694,0.00295570,-0.00291975
 ,0.00253384,0.00001845,-0.00211273,-0.00086922,-0.00004554,0.68067904,
 -0.02489043,-0.00198351,0.00097869,0.00301787,0.00713169,-0.00010781,0
 .00645427,0.00003230,-0.00004045,0.00112378,0.00108459,-0.00005115,-0.
 03775485,-0.17543869,0.00379374,0.00188778,-0.00077086,-0.00006567,0.0
 0459670,-0.00047102,-0.00025254,-0.15385108,0.91799602,0.00122268,0.00
 126784,0.00118354,0.00046060,-0.00001827,0.00715995,0.00012055,-0.0000
 8431,0.00780754,0.00000452,0.00003360,0.00065612,0.00266471,0.00421854
 ,-0.07741259,0.00003445,-0.00008897,-0.00067011,-0.00018083,-0.0000552
 3,-0.00396250,-0.01345682,-0.01216110,0.20314648,-0.03078154,0.0267870
 0,0.00076410,-0.00082783,0.00270754,-0.00030944,-0.17700360,-0.1214782
 2,0.00719195,0.00071576,0.00010149,-0.00003810,-0.18932991,0.12043137,
 0.00155770,-0.02319081,-0.03152554,0.00186576,-0.00564044,-0.00121130,
 0.00044027,0.02118525,-0.00525260,-0.00066420,0.75114395,0.07127194,0.
 03666838,-0.00326336,0.00149851,-0.06774227,0.00143583,-0.05439564,-0.
 29888706,0.00785001,0.00011668,-0.00131716,0.00002170,0.06496168,-0.25
 841374,0.00247715,-0.08004491,0.03088918,0.00229501,-0.00221309,0.0010
 0432,0.00019677,0.00705071,-0.03192332,0.00051543,0.01515752,0.6719246
 6,-0.00033692,-0.00165770,0.00880949,-0.00027952,0.00139220,-0.0075689
 1,0.00553161,0.01027130,-0.06150351,-0.00003848,0.00002225,-0.00026946
 ,0.00293062,0.00047503,-0.06370877,0.00306664,0.00054372,0.00675860,0.
 00046507,0.00016060,0.00570599,-0.00096865,0.00095948,-0.00080591,-0.0
 2254647,-0.01378959,0.13804078,-0.00077867,-0.00091634,0.00003926,-0.0
 0548210,-0.00201721,0.00049731,-0.14047565,0.12646636,0.00064432,-0.00
 071696,0.00150492,0.00000068,-0.00094515,-0.00280605,0.00036948,-0.012
 06119,0.02902770,-0.00019665,0.00011062,0.00008493,-0.00004909,0.00066
 300,-0.00055886,0.00001584,0.01219681,-0.01444137,-0.00000180,0.145623
 29,-0.00087632,0.00019953,0.00001879,-0.00075270,0.00131477,0.00016572
 ,0.12648347,-0.26001026,0.00098139,-0.00021668,0.00016655,0.00001196,-
 0.00428401,-0.00299077,0.00041099,-0.00277449,0.00513468,0.00003235,0.
 00009213,-0.00002362,-0.00003222,0.00184127,0.00026318,-0.00005519,0.0
 1718932,-0.01952854,-0.00008155,-0.13617862,0.27469956,0.00003827,0.00
 002023,-0.00032124,0.00046601,0.00021136,0.00689052,0.00064390,0.00098
 201,-0.03595226,0.00004329,-0.00005018,0.00033348,0.00040607,0.0003576
 5,0.00734386,0.00059048,-0.00111554,0.00240178,-0.00004927,-0.00003196
 ,-0.00118866,-0.00004356,0.00003145,0.00071954,-0.00078468,0.00106014,
 0.00224620,-0.00095822,-0.00124769,0.02576123,-0.00145894,0.00327161,0
 .00023207,0.01233420,0.01638969,-0.00072869,-0.00932583,-0.03005532,0.
 00120212,0.00088323,-0.00051109,-0.00015642,-0.00088288,0.00085679,-0.
 00000101,-0.12105460,-0.11421882,0.00582941,0.00046805,0.00080225,-0.0
 0003805,-0.00020113,0.00025987,-0.00004997,-0.00583217,0.00117180,0.00
 044112,0.00109446,0.00037430,-0.00018718,0.12417184,0.00424029,-0.0029
 0585,0.00009742,-0.01514666,-0.01868390,0.00109292,0.00153784,0.002917
 31,-0.00004432,0.00022255,0.00101878,-0.00012732,0.00086946,0.00032852
 ,-0.00004752,-0.11424449,-0.27914339,0.01009520,-0.00081337,-0.0008715
 1,0.00005004,0.00027656,0.00008449,-0.00004691,0.00019686,0.00154757,0
 .00013261,-0.00035751,0.00080233,-0.00010187,0.12347276,0.29506607,0.0
 0020809,0.00013238,0.00720322,0.00005185,-0.00004536,0.00338377,0.0004
 2017,0.00109603,0.00332721,-0.00017458,-0.00010084,-0.00379210,-0.0000
 0132,-0.00004706,-0.00032218,0.00583005,0.01009427,-0.03833231,0.00000
 194,-0.00000827,-0.00003579,-0.00005038,-0.00004631,-0.00140442,0.0004
 6525,0.00009742,0.00717336,-0.00016907,-0.00012828,-0.00382552,-0.0066
 0619,-0.01112082,0.02632776,0.00065128,0.00313200,0.00011427,0.0006403
 8,-0.00007916,-0.00003189,-0.00886129,0.00152014,0.00041336,-0.0000668
 5,-0.00003425,-0.00004297,-0.01301319,-0.00171939,0.00061261,0.0007964
 8,-0.00245703,0.00030131,-0.00066473,-0.00024419,0.00005700,-0.0023451
 8,-0.00071823,-0.00004576,-0.34579460,-0.01064805,0.01137819,0.0008563
 0,-0.00019858,-0.00017226,-0.00049903,0.00017028,0.00001408,0.36661508
 ,0.00216319,-0.00507823,0.00019524,0.00007558,-0.00102770,0.00001535,-
 0.02918433,0.00361634,0.00105381,-0.00001953,0.00016952,-0.00003519,0.
 02739423,0.00602960,-0.00106920,-0.00174343,-0.00488984,0.00036858,0.0
 0157774,0.00032986,-0.00004662,0.00314361,0.00138120,-0.00024928,-0.01
 300088,-0.06056426,0.00103115,0.00046239,0.00107225,-0.00014353,-0.001
 46323,0.00003320,0.00005218,0.01384273,0.06047947,0.00013825,0.0001602
 7,0.00595586,-0.00003572,0.00002093,-0.00029652,0.00117332,-0.00005444
 ,0.00359232,-0.00004333,-0.00003466,-0.00127839,-0.00010798,-0.0000183
 4,0.00278456,0.00028364,0.00039434,0.00743938,0.00001191,0.00001914,0.
 00074622,-0.00014135,-0.00010989,-0.00409773,0.01143644,0.00094620,-0.
 03829831,-0.00018862,-0.00011967,-0.00404269,0.00005451,-0.00000678,0.
 00000589,-0.01263228,-0.00134984,0.02661807,-0.00641961,-0.00253342,0.
 00030025,0.00224318,0.00108549,-0.00012848,0.00108228,-0.00106041,-0.0
 0006898,0.00003503,0.00015449,-0.00000511,0.01828722,0.00150552,-0.000
 01277,0.00044656,-0.00108190,0.00001395,0.00242314,-0.00154055,-0.0000
 6111,-0.25414349,0.25287347,0.00020652,-0.00232128,-0.00226831,0.00024
 842,-0.00009274,-0.00027013,-0.00000280,0.00019230,-0.00022906,0.00000
 569,0.00065235,-0.00111017,0.00002752,0.29879454,0.00747706,-0.0008068
 7,-0.00024593,0.00025831,-0.00100661,0.00000143,-0.00110900,-0.0030606
 9,0.00007726,-0.00043331,-0.00025781,0.00002201,0.01690461,-0.05859758
 ,0.00130979,0.00099533,-0.00053294,-0.00002048,-0.00176202,-0.00104865
 ,0.00008149,0.25180267,-0.58852624,0.00362290,-0.00889571,0.00041997,0
 .00038509,-0.00033051,-0.00098005,0.00002738,-0.00018838,-0.00013581,0
 .00001493,0.00013825,0.00052208,-0.00000173,-0.32136525,0.65500227,0.0
 0005244,0.00011540,0.00015660,-0.00010801,-0.00002842,-0.00056759,-0.0
 0006778,0.00007553,-0.00155529,0.00000944,0.00000079,-0.00000090,-0.00
 039397,0.00186549,0.01893417,-0.00003746,0.00005449,0.00009115,-0.0000
 5562,0.00007349,-0.00032599,0.00023298,0.00358439,-0.07509941,0.000412
 48,0.00014588,0.00298726,-0.00000131,0.00002521,-0.00035618,0.00000468
 ,0.00001640,0.00019219,-0.00000338,0.00004333,0.00065260,-0.00165645,-
 0.00380915,0.03266870,-0.00015961,-0.00187137,0.00007202,-0.00070252,0
 .00028753,0.00000297,0.00046213,-0.00006197,-0.00000928,-0.00002813,-0
 .00014020,0.00000174,-0.00689333,0.00330329,0.00035538,0.00003378,0.00
 023840,-0.00000592,-0.00022623,-0.00005148,0.00001593,-0.02599322,-0.0
 6173845,0.00263266,-0.00003334,0.00116972,-0.00004461,-0.00000768,0.00
 005755,-0.00000046,0.00004875,0.00003113,-0.00000309,0.00052158,-0.000
 41917,-0.00001729,0.00883615,0.00560386,-0.00069655,0.10337245,-0.0000
 1567,-0.00024274,0.00002025,-0.00016845,0.00031407,-0.00001216,-0.0000
 1097,0.00003167,0.00000364,0.00001544,-0.00002431,-0.00000184,0.000759
 93,0.00179077,0.00005739,0.00008114,-0.00004562,-0.00000098,-0.0000747
 8,0.00002947,0.00000642,-0.00947049,-0.00059043,0.00047039,0.00027916,
 0.00021270,-0.00002690,-0.00000863,-0.00000547,0.00000092,-0.00000630,
 0.00000304,-0.00000023,-0.00019614,0.00017504,-0.00000332,0.00563677,-
 0.00354290,-0.00027956,0.14068564,0.44142200,0.00002609,0.00008724,0.0
 0054921,0.00001426,-0.00002863,-0.00042284,-0.00001054,0.00000548,0.00
 016285,-0.00000212,0.00000378,-0.00007618,0.00041831,-0.00003447,0.005
 20248,-0.00000204,-0.00000666,0.00003334,0.00001650,0.00000558,0.00017
 893,0.00133894,0.00235723,0.00449752,-0.00002257,-0.00005905,-0.000464
 85,0.00000118,-0.00000147,0.00001897,-0.00000216,-0.00000158,-0.000015
 38,-0.00002281,0.00000474,-0.00024421,-0.00069735,-0.00027841,-0.00658
 559,-0.00673398,-0.01567562,0.01392480,0.00352344,-0.00298777,0.000007
 12,-0.00006705,-0.00147515,0.00002819,-0.00068004,-0.00096234,0.000020
 43,-0.00033939,-0.00041449,0.00001554,-0.03102999,-0.01326020,0.001768
 17,-0.00041729,-0.00005873,0.00001920,0.00151359,0.00094678,-0.0000729
 9,-0.26626962,0.01455075,0.00703504,-0.00448625,0.00161282,0.00015478,
 0.00001567,-0.00048652,0.00001044,0.00006175,-0.00022665,0.00000753,0.
 00051143,-0.00171873,0.00004099,-0.07001564,0.05090409,0.00230850,-0.0
 7923078,-0.13750667,0.00567828,0.44691016,0.00128036,-0.00635859,0.000
 15255,-0.00224443,-0.00063117,0.00008926,-0.00039024,0.00120347,-0.000
 03485,-0.00038670,-0.00059434,0.00002389,-0.03963042,0.00028325,0.0016
 4283,-0.00103091,0.00024784,0.00003292,-0.00068851,-0.00003916,0.00002
 931,-0.02701943,-0.12826939,0.00263055,-0.00148602,-0.00429043,0.00018
 232,0.00006882,-0.00011414,-0.00000037,-0.00015593,-0.00006084,0.00000
 998,-0.00250837,-0.00224851,0.00015779,0.07020345,0.00255182,-0.001883
 27,-0.08709447,-0.43952729,0.01362185,0.09108281,0.57784749,-0.0000985
 3,0.00030662,0.00166791,0.00004724,0.00006151,-0.00030076,0.00000628,-
 0.00001420,-0.00077364,0.00001486,0.00002490,-0.00019417,0.00242078,0.
 00069090,0.00875599,0.00004327,-0.00000217,0.00007293,-0.00003252,-0.0
 0002972,0.00014260,0.00806415,0.00112993,-0.06171802,0.00023150,0.0000
 7046,0.00089803,-0.00000330,0.00001968,-0.00002902,0.00000578,0.000012
 53,0.00011430,0.00006053,0.00012929,0.00046295,0.00183070,-0.00118658,
 0.02880828,0.00443049,0.01544162,-0.01675906,-0.01702123,-0.01665475,0
 .03885168\\-0.00011185,-0.00001619,0.00000440,0.00003551,-0.00004185,-
 0.00000023,0.00000269,0.00004891,-0.00000129,-0.00000785,-0.00000363,0
 .00000038,0.00005067,0.00002179,-0.00000264,-0.00001994,0.00004328,-0.
 00000035,0.00003903,0.00002885,-0.00000212,0.00001744,-0.00010061,0.00
 000283,0.00002048,-0.00008879,0.00000143,-0.00000238,-0.00000675,0.000
 00026,0.00000172,0.00000257,-0.00000013,-0.00000277,0.00002780,-0.0000
 0059,-0.00001082,0.00005059,-0.00000123,0.00000269,-0.00000874,0.00000
 012,-0.00001463,0.00004278,-0.00000082\\\@


 THE POLHOLDE ROLLS WITHOUT SLIPPING ON THE HERPOLHOLDE LYING IN
 THE INVARIABLE PLANE.
 H.GOLDSTEIN, "CLASSICAL MECHANICS", PG 161
 Job cpu time:       0 days  0 hours  5 minutes 47.2 seconds.
 Elapsed time:       0 days  0 hours  1 minutes 11.2 seconds.
 File lengths (MBytes):  RWF=    107 Int=      0 D2E=      0 Chk=     67 Scr=      2
 Normal termination of Gaussian 16 at Mon Sep 21 11:00:11 2026.
