%NProcShared=8
%mem=28GB
%Chk=job.chk
#p B3LYP/6-31G(d) Opt

 C7H6O2 | Equilibrium Geometry | B3LYP/6-31G(d)

0 1
C     -0.849098    2.013641    0.026359
C     -1.502620    0.785640    0.113605
C      0.618178   -0.350393   -0.009803
H     -2.586435    0.752021    0.195732
C      0.544716    2.075512   -0.081629
C     -0.769303   -0.397466    0.095317
H     -1.437438    2.928253    0.041895
C      1.215944    3.420166   -0.176655
C      1.273234    0.877240   -0.098106
H      1.192005   -1.274044   -0.023215
H     -1.278985   -1.355776    0.163152
H      2.356672    0.880860   -0.178705
O      0.608790    4.471450   -0.160621
H      2.793140    2.468106   -0.283057
O      2.518709    3.399198   -0.283502

