 Entering Gaussian System, Link 0=g16
 Initial command:
 /opt/software/gaussian/16RevA.03/g16/l1.exe "/home/class-qc/qc26/g16scratch/706/Gau-110224.inp" -scrdir="/home/class-qc/qc26/g16scratch/706/"
 Entering Link 1 = /opt/software/gaussian/16RevA.03/g16/l1.exe PID=    110225.
  
 Copyright (c) 1988,1990,1992,1993,1995,1998,2003,2009,2016,
            Gaussian, Inc.  All Rights Reserved.
  
 This is part of the Gaussian(R) 16 program.  It is based on
 the Gaussian(R) 09 system (copyright 2009, Gaussian, Inc.),
 the Gaussian(R) 03 system (copyright 2003, Gaussian, Inc.),
 the Gaussian(R) 98 system (copyright 1998, Gaussian, Inc.),
 the Gaussian(R) 94 system (copyright 1995, Gaussian, Inc.),
 the Gaussian 92(TM) system (copyright 1992, Gaussian, Inc.),
 the Gaussian 90(TM) system (copyright 1990, Gaussian, Inc.),
 the Gaussian 88(TM) system (copyright 1988, Gaussian, Inc.),
 the Gaussian 86(TM) system (copyright 1986, Carnegie Mellon
 University), and the Gaussian 82(TM) system (copyright 1983,
 Carnegie Mellon University). Gaussian is a federally registered
 trademark of Gaussian, Inc.
  
 This software contains proprietary and confidential information,
 including trade secrets, belonging to Gaussian, Inc.
  
 This software is provided under written license and may be
 used, copied, transmitted, or stored only in accord with that
 written license.
  
 The following legend is applicable only to US Government
 contracts under FAR:
  
                    RESTRICTED RIGHTS LEGEND
  
 Use, reproduction and disclosure by the US Government is
 subject to restrictions as set forth in subparagraphs (a)
 and (c) of the Commercial Computer Software - Restricted
 Rights clause in FAR 52.227-19.
  
 Gaussian, Inc.
 340 Quinnipiac St., Bldg. 40, Wallingford CT 06492
  
  
 ---------------------------------------------------------------
 Warning -- This program may not be used in any manner that
 competes with the business of Gaussian, Inc. or will provide
 assistance to any competitor of Gaussian, Inc.  The licensee
 of this program is prohibited from giving any competitor of
 Gaussian, Inc. access to this program.  By using this program,
 the user acknowledges that Gaussian, Inc. is engaged in the
 business of creating and licensing software in the field of
 computational chemistry and represents and warrants to the
 licensee that it is not a competitor of Gaussian, Inc. and that
 it will not use this program in any manner prohibited above.
 ---------------------------------------------------------------
  

 Cite this work as:
 Gaussian 16, Revision A.03,
 M. J. Frisch, G. W. Trucks, H. B. Schlegel, G. E. Scuseria, 
 M. A. Robb, J. R. Cheeseman, G. Scalmani, V. Barone, 
 G. A. Petersson, H. Nakatsuji, X. Li, M. Caricato, A. V. Marenich, 
 J. Bloino, B. G. Janesko, R. Gomperts, B. Mennucci, H. P. Hratchian, 
 J. V. Ortiz, A. F. Izmaylov, J. L. Sonnenberg, D. Williams-Young, 
 F. Ding, F. Lipparini, F. Egidi, J. Goings, B. Peng, A. Petrone, 
 T. Henderson, D. Ranasinghe, V. G. Zakrzewski, J. Gao, N. Rega, 
 G. Zheng, W. Liang, M. Hada, M. Ehara, K. Toyota, R. Fukuda, 
 J. Hasegawa, M. Ishida, T. Nakajima, Y. Honda, O. Kitao, H. Nakai, 
 T. Vreven, K. Throssell, J. A. Montgomery, Jr., J. E. Peralta, 
 F. Ogliaro, M. J. Bearpark, J. J. Heyd, E. N. Brothers, K. N. Kudin, 
 V. N. Staroverov, T. A. Keith, R. Kobayashi, J. Normand, 
 K. Raghavachari, A. P. Rendell, J. C. Burant, S. S. Iyengar, 
 J. Tomasi, M. Cossi, J. M. Millam, M. Klene, C. Adamo, R. Cammi, 
 J. W. Ochterski, R. L. Martin, K. Morokuma, O. Farkas, 
 J. B. Foresman, and D. J. Fox, Gaussian, Inc., Wallingford CT, 2016.
 
 ******************************************
 Gaussian 16:  ES64L-G16RevA.03 25-Dec-2016
                21-Sep-2026 
 ******************************************
 %NProcShared=8
 Will use up to    8 processors via shared memory.
 %mem=28GB
 %Chk=job.chk
 ---------------------
 #p B3LYP/6-31G(d) Opt
 ---------------------
 1/18=20,19=15,26=3,38=1/1,3;
 2/9=110,12=2,17=6,18=5,40=1/2;
 3/5=1,6=6,7=1,11=2,25=1,30=1,71=1,74=-5/1,2,3;
 4//1;
 5/5=2,38=5/2;
 6/7=2,8=2,9=2,10=2,28=1/1;
 7//1,2,3,16;
 1/18=20,19=15,26=3/3(2);
 2/9=110/2;
 99//99;
 2/9=110/2;
 3/5=1,6=6,7=1,11=2,25=1,30=1,71=1,74=-5/1,2,3;
 4/5=5,16=3,69=1/1;
 5/5=2,38=5/2;
 7//1,2,3,16;
 1/18=20,19=15,26=3/3(-5);
 2/9=110/2;
 6/7=2,8=2,9=2,10=2,19=2,28=1/1;
 99/9=1/99;
 Leave Link    1 at Mon Sep 21 10:04:52 2026, MaxMem=  3758096384 cpu:               1.1 elap:               0.2
 (Enter /opt/software/gaussian/16RevA.03/g16/l101.exe)
 ----------------------------------------------
 C7H6O2 | Equilibrium Geometry | B3LYP/6-31G(d)
 ----------------------------------------------
 Symbolic Z-matrix:
 Charge =  0 Multiplicity = 1
 C                    -0.8491    2.01364   0.02636 
 C                    -1.50262   0.78564   0.11361 
 C                     0.61818  -0.35039  -0.0098 
 H                    -2.58644   0.75202   0.19573 
 C                     0.54472   2.07551  -0.08163 
 C                    -0.7693   -0.39747   0.09532 
 H                    -1.43744   2.92825   0.0419 
 C                     1.21594   3.42017  -0.17666 
 C                     1.27323   0.87724  -0.09811 
 H                     1.192    -1.27404  -0.02322 
 H                    -1.27899  -1.35578   0.16315 
 H                     2.35667   0.88086  -0.17871 
 O                     0.60879   4.47145  -0.16062 
 H                     2.79314   2.46811  -0.28306 
 O                     2.51871   3.3992   -0.2835 
 
 ITRead=  0  0  0  0  0  0  0  0  0  0  0  0  0  0  0
 MicOpt= -1 -1 -1 -1 -1 -1 -1 -1 -1 -1 -1 -1 -1 -1 -1
 NAtoms=     15 NQM=       15 NQMF=       0 NMMI=      0 NMMIF=      0
                NMic=       0 NMicF=      0.
                    Isotopes and Nuclear Properties:
 (Nuclear quadrupole moments (NQMom) in fm**2, nuclear magnetic moments (NMagM)
  in nuclear magnetons)

  Atom         1           2           3           4           5           6           7           8           9          10
 IAtWgt=          12          12          12           1          12          12           1          12          12           1
 AtmWgt=  12.0000000  12.0000000  12.0000000   1.0078250  12.0000000  12.0000000   1.0078250  12.0000000  12.0000000   1.0078250
 NucSpn=           0           0           0           1           0           0           1           0           0           1
 AtZEff=  -0.0000000  -0.0000000  -0.0000000  -0.0000000  -0.0000000  -0.0000000  -0.0000000  -0.0000000  -0.0000000  -0.0000000
 NQMom=    0.0000000   0.0000000   0.0000000   0.0000000   0.0000000   0.0000000   0.0000000   0.0000000   0.0000000   0.0000000
 NMagM=    0.0000000   0.0000000   0.0000000   2.7928460   0.0000000   0.0000000   2.7928460   0.0000000   0.0000000   2.7928460
 AtZNuc=   6.0000000   6.0000000   6.0000000   1.0000000   6.0000000   6.0000000   1.0000000   6.0000000   6.0000000   1.0000000

  Atom        11          12          13          14          15
 IAtWgt=           1           1          16           1          16
 AtmWgt=   1.0078250   1.0078250  15.9949146   1.0078250  15.9949146
 NucSpn=           1           1           0           1           0
 AtZEff=  -0.0000000  -0.0000000  -0.0000000  -0.0000000  -0.0000000
 NQMom=    0.0000000   0.0000000   0.0000000   0.0000000   0.0000000
 NMagM=    2.7928460   2.7928460   0.0000000   2.7928460   0.0000000
 AtZNuc=   1.0000000   1.0000000   8.0000000   1.0000000   8.0000000
 Leave Link  101 at Mon Sep 21 10:04:52 2026, MaxMem=  3758096384 cpu:               2.7 elap:               0.4
 (Enter /opt/software/gaussian/16RevA.03/g16/l103.exe)

 GradGradGradGradGradGradGradGradGradGradGradGradGradGradGradGradGradGrad
 Berny optimization.
 Initialization pass.
                           ----------------------------
                           !    Initial Parameters    !
                           ! (Angstroms and Degrees)  !
 --------------------------                            --------------------------
 ! Name  Definition              Value          Derivative Info.                !
 --------------------------------------------------------------------------------
 ! R1    R(1,2)                  1.3938         estimate D2E/DX2                !
 ! R2    R(1,5)                  1.3994         estimate D2E/DX2                !
 ! R3    R(1,7)                  1.0876         estimate D2E/DX2                !
 ! R4    R(2,4)                  1.0874         estimate D2E/DX2                !
 ! R5    R(2,6)                  1.3921         estimate D2E/DX2                !
 ! R6    R(3,6)                  1.3923         estimate D2E/DX2                !
 ! R7    R(3,9)                  1.3943         estimate D2E/DX2                !
 ! R8    R(3,10)                 1.0875         estimate D2E/DX2                !
 ! R9    R(5,8)                  1.5059         estimate D2E/DX2                !
 ! R10   R(5,9)                  1.4024         estimate D2E/DX2                !
 ! R11   R(6,11)                 1.0875         estimate D2E/DX2                !
 ! R12   R(8,13)                 1.2141         estimate D2E/DX2                !
 ! R13   R(8,15)                 1.3073         estimate D2E/DX2                !
 ! R14   R(9,12)                 1.0864         estimate D2E/DX2                !
 ! R15   R(14,15)                0.9707         estimate D2E/DX2                !
 ! A1    A(2,1,5)              120.7173         estimate D2E/DX2                !
 ! A2    A(2,1,7)              119.1022         estimate D2E/DX2                !
 ! A3    A(5,1,7)              120.1804         estimate D2E/DX2                !
 ! A4    A(1,2,4)              119.9523         estimate D2E/DX2                !
 ! A5    A(1,2,6)              120.0645         estimate D2E/DX2                !
 ! A6    A(4,2,6)              119.9832         estimate D2E/DX2                !
 ! A7    A(6,3,9)              120.1829         estimate D2E/DX2                !
 ! A8    A(6,3,10)             119.8729         estimate D2E/DX2                !
 ! A9    A(9,3,10)             119.9442         estimate D2E/DX2                !
 ! A10   A(1,5,8)              119.2303         estimate D2E/DX2                !
 ! A11   A(1,5,9)              118.7202         estimate D2E/DX2                !
 ! A12   A(8,5,9)              122.0495         estimate D2E/DX2                !
 ! A13   A(2,6,3)              119.8173         estimate D2E/DX2                !
 ! A14   A(2,6,11)             120.0798         estimate D2E/DX2                !
 ! A15   A(3,6,11)             120.1028         estimate D2E/DX2                !
 ! A16   A(5,8,13)             123.3286         estimate D2E/DX2                !
 ! A17   A(5,8,15)             115.7869         estimate D2E/DX2                !
 ! A18   A(13,8,15)            120.8843         estimate D2E/DX2                !
 ! A19   A(3,9,5)              120.4976         estimate D2E/DX2                !
 ! A20   A(3,9,12)             118.4347         estimate D2E/DX2                !
 ! A21   A(5,9,12)             121.0678         estimate D2E/DX2                !
 ! A22   A(8,15,14)            107.2824         estimate D2E/DX2                !
 ! D1    D(5,1,2,4)           -179.9151         estimate D2E/DX2                !
 ! D2    D(5,1,2,6)              0.0666         estimate D2E/DX2                !
 ! D3    D(7,1,2,4)              0.0056         estimate D2E/DX2                !
 ! D4    D(7,1,2,6)            179.9873         estimate D2E/DX2                !
 ! D5    D(2,1,5,8)            179.8753         estimate D2E/DX2                !
 ! D6    D(2,1,5,9)             -0.1108         estimate D2E/DX2                !
 ! D7    D(7,1,5,8)             -0.0446         estimate D2E/DX2                !
 ! D8    D(7,1,5,9)            179.9693         estimate D2E/DX2                !
 ! D9    D(1,2,6,3)              0.0251         estimate D2E/DX2                !
 ! D10   D(1,2,6,11)          -179.9863         estimate D2E/DX2                !
 ! D11   D(4,2,6,3)           -179.9933         estimate D2E/DX2                !
 ! D12   D(4,2,6,11)            -0.0046         estimate D2E/DX2                !
 ! D13   D(9,3,6,2)             -0.0703         estimate D2E/DX2                !
 ! D14   D(9,3,6,11)           179.941          estimate D2E/DX2                !
 ! D15   D(10,3,6,2)           179.9416         estimate D2E/DX2                !
 ! D16   D(10,3,6,11)           -0.0471         estimate D2E/DX2                !
 ! D17   D(6,3,9,5)              0.0246         estimate D2E/DX2                !
 ! D18   D(6,3,9,12)           179.9747         estimate D2E/DX2                !
 ! D19   D(10,3,9,5)          -179.9873         estimate D2E/DX2                !
 ! D20   D(10,3,9,12)           -0.0371         estimate D2E/DX2                !
 ! D21   D(1,5,8,13)             0.2405         estimate D2E/DX2                !
 ! D22   D(1,5,8,15)          -179.5881         estimate D2E/DX2                !
 ! D23   D(9,5,8,13)          -179.7738         estimate D2E/DX2                !
 ! D24   D(9,5,8,15)             0.3976         estimate D2E/DX2                !
 ! D25   D(1,5,9,3)              0.0653         estimate D2E/DX2                !
 ! D26   D(1,5,9,12)          -179.8836         estimate D2E/DX2                !
 ! D27   D(8,5,9,3)           -179.9204         estimate D2E/DX2                !
 ! D28   D(8,5,9,12)             0.1307         estimate D2E/DX2                !
 ! D29   D(5,8,15,14)            0.2695         estimate D2E/DX2                !
 ! D30   D(13,8,15,14)        -179.5636         estimate D2E/DX2                !
 --------------------------------------------------------------------------------
 Trust Radius=3.00D-01 FncErr=1.00D-07 GrdErr=1.00D-06 EigMax=2.50D+02 EigMin=1.00D-04
 Number of steps in this run=     77 maximum allowed number of steps=    100.
 GradGradGradGradGradGradGradGradGradGradGradGradGradGradGradGradGradGrad

 Leave Link  103 at Mon Sep 21 10:04:52 2026, MaxMem=  3758096384 cpu:               0.3 elap:               0.1
 (Enter /opt/software/gaussian/16RevA.03/g16/l202.exe)
                          Input orientation:                          
 ---------------------------------------------------------------------
 Center     Atomic      Atomic             Coordinates (Angstroms)
 Number     Number       Type             X           Y           Z
 ---------------------------------------------------------------------
      1          6           0       -0.849098    2.013641    0.026359
      2          6           0       -1.502620    0.785640    0.113605
      3          6           0        0.618178   -0.350393   -0.009803
      4          1           0       -2.586435    0.752021    0.195732
      5          6           0        0.544716    2.075512   -0.081629
      6          6           0       -0.769303   -0.397466    0.095317
      7          1           0       -1.437438    2.928253    0.041895
      8          6           0        1.215944    3.420166   -0.176655
      9          6           0        1.273234    0.877240   -0.098106
     10          1           0        1.192005   -1.274044   -0.023215
     11          1           0       -1.278985   -1.355776    0.163152
     12          1           0        2.356672    0.880860   -0.178705
     13          8           0        0.608790    4.471450   -0.160621
     14          1           0        2.793140    2.468106   -0.283057
     15          8           0        2.518709    3.399198   -0.283502
 ---------------------------------------------------------------------
                    Distance matrix (angstroms):
                    1          2          3          4          5
     1  C    0.000000
     2  C    1.393804   0.000000
     3  C    2.782600   2.409063   0.000000
     4  H    2.153767   1.087442   3.395159   0.000000
     5  C    1.399359   2.427647   2.428080   3.410669   0.000000
     6  C    2.413412   1.392059   1.392253   2.152527   2.805989
     7  H    1.087612   2.144803   3.870110   2.465734   2.161333
     8  C    2.506776   3.796784   3.821293   4.660017   1.505879
     9  C    2.410641   2.785422   1.394266   3.872863   1.402450
    10  H    3.870069   3.394410   1.087469   4.292958   3.412026
    11  H    3.399483   2.153632   2.154051   2.480584   3.893525
    12  H    3.406201   3.871517   2.137024   4.958942   2.172510
    13  O    2.863778   4.256577   4.824210   4.916361   2.398096
    14  H    3.683500   4.630506   3.570583   5.666923   2.291313
    15  O    3.654847   4.812428   4.212643   5.770590   2.385277
                    6          7          8          9         10
     6  C    0.000000
     7  H    3.392590   0.000000
     8  C    4.311553   2.707430   0.000000
     9  C    2.415418   3.402058   2.544784   0.000000
    10  H    2.151550   4.957571   4.696778   2.154119   0.000000
    11  H    1.087536   4.288673   5.399052   3.401241   2.479356
    12  H    3.388351   4.316915   2.783764   1.086438   2.454432
    13  O    5.066654   2.570898   1.214122   3.655645   5.776653
    14  H    4.587556   4.267917   1.845342   2.207980   4.078583
    15  O    5.036783   3.997346   1.307307   2.818839   4.864883
                   11         12         13         14         15
    11  H    0.000000
    12  H    4.282220   0.000000
    13  O    6.133929   3.993464   0.000000
    14  H    5.603872   1.649468   2.966439   0.000000
    15  O    6.101783   2.525721   2.193767   0.970693   0.000000
 Stoichiometry    C7H6O2
 Framework group  C1[X(C7H6O2)]
 Deg. of freedom    39
 Full point group                 C1      NOp   1
 Largest Abelian subgroup         C1      NOp   1
 Largest concise Abelian subgroup C1      NOp   1
                         Standard orientation:                         
 ---------------------------------------------------------------------
 Center     Atomic      Atomic             Coordinates (Angstroms)
 Number     Number       Type             X           Y           Z
 ---------------------------------------------------------------------
      1          6           0       -0.494111   -1.224780    0.000293
      2          6           0       -1.887585   -1.194565    0.002608
      3          6           0       -1.834145    1.213901   -0.002257
      4          1           0       -2.450815   -2.124776    0.005506
      5          6           0        0.246596   -0.037533   -0.001661
      6          6           0       -2.558693    0.025042    0.001599
      7          1           0        0.014147   -2.186328    0.001335
      8          6           0        1.750767   -0.109233   -0.001277
      9          6           0       -0.440174    1.185254   -0.003625
     10          1           0       -2.357489    2.167156   -0.004009
     11          1           0       -3.645966    0.048909    0.003630
     12          1           0        0.096657    2.129790   -0.007069
     13          8           0        2.368797   -1.154281   -0.003597
     14          1           0        1.698130    1.735302    0.013068
     15          8           0        2.374878    1.039460    0.005280
 ---------------------------------------------------------------------
 Rotational constants (GHZ):           3.8850941           1.2264612           0.9321899
 Leave Link  202 at Mon Sep 21 10:04:52 2026, MaxMem=  3758096384 cpu:               0.3 elap:               0.1
 (Enter /opt/software/gaussian/16RevA.03/g16/l301.exe)
 Standard basis: 6-31G(d) (6D, 7F)
 Ernie: Thresh=  0.10000D-02 Tol=  0.10000D-05 Strict=F.
 There are   147 symmetry adapted cartesian basis functions of A   symmetry.
 There are   147 symmetry adapted basis functions of A   symmetry.
   147 basis functions,   276 primitive gaussians,   147 cartesian basis functions
    32 alpha electrons       32 beta electrons
       nuclear repulsion energy       406.0657536470 Hartrees.
 IExCor=  402 DFT=T Ex+Corr=B3LYP ExCW=0 ScaHFX=  0.200000
 ScaDFX=  0.800000  0.720000  1.000000  0.810000 ScalE2=  1.000000  1.000000
 IRadAn=      5 IRanWt=     -1 IRanGd=            0 ICorTp=0 IEmpDi=  4
 NAtoms=   15 NActive=   15 NUniq=   15 SFac= 1.00D+00 NAtFMM=   60 NAOKFM=F Big=F
 Integral buffers will be    131072 words long.
 Raffenetti 2 integral format.
 Two-electron integral symmetry is turned on.
 Leave Link  301 at Mon Sep 21 10:04:52 2026, MaxMem=  3758096384 cpu:               0.6 elap:               0.1
 (Enter /opt/software/gaussian/16RevA.03/g16/l302.exe)
 NPDir=0 NMtPBC=     1 NCelOv=     1 NCel=       1 NClECP=     1 NCelD=      1
         NCelK=      1 NCelE2=     1 NClLst=     1 CellRange=     0.0.
 One-electron integrals computed using PRISM.
 One-electron integral symmetry used in STVInt
 NBasis=   147 RedAO= T EigKep=  4.62D-04  NBF=   147
 NBsUse=   147 1.00D-06 EigRej= -1.00D+00 NBFU=   147
 Precomputing XC quadrature grid using
 IXCGrd= 4 IRadAn=           5 IRanWt=          -1 IRanGd=           0 AccXCQ= 0.00D+00.
 Generated NRdTot=       0 NPtTot=           0 NUsed=           0 NTot=          32
 NSgBfM=   147   147   147   147   147 MxSgAt=    15 MxSgA2=    15.
 Leave Link  302 at Mon Sep 21 10:04:52 2026, MaxMem=  3758096384 cpu:               1.1 elap:               0.2
 (Enter /opt/software/gaussian/16RevA.03/g16/l303.exe)
 DipDrv:  MaxL=1.
 Leave Link  303 at Mon Sep 21 10:04:53 2026, MaxMem=  3758096384 cpu:               0.2 elap:               0.1
 (Enter /opt/software/gaussian/16RevA.03/g16/l401.exe)
 ExpMin= 1.61D-01 ExpMax= 5.48D+03 ExpMxC= 8.25D+02 IAcc=3 IRadAn=         5 AccDes= 0.00D+00
 Harris functional with IExCor=  402 and IRadAn=       5 diagonalized for initial guess.
 HarFok:  IExCor=  402 AccDes= 0.00D+00 IRadAn=         5 IDoV= 1 UseB2=F ITyADJ=14
 ICtDFT=  3500011 ScaDFX=  1.000000  1.000000  1.000000  1.000000
 FoFCou: FMM=F IPFlag=           0 FMFlag=      100000 FMFlg1=           0
         NFxFlg=           0 DoJE=T BraDBF=F KetDBF=T FulRan=T
         wScrn=  0.000000 ICntrl=       500 IOpCl=  0 I1Cent=   200000004 NGrid=           0
         NMat0=    1 NMatS0=      1 NMatT0=    0 NMatD0=    1 NMtDS0=    0 NMtDT0=    0
 Petite list used in FoFCou.
 Harris En= -420.833832911464    
 JPrj=0 DoOrth=F DoCkMO=F.
 Leave Link  401 at Mon Sep 21 10:04:53 2026, MaxMem=  3758096384 cpu:               3.1 elap:               0.4
 (Enter /opt/software/gaussian/16RevA.03/g16/l502.exe)
 Integral symmetry usage will be decided dynamically.
 Closed shell SCF:
 Using DIIS extrapolation, IDIIS=  1040.
 NGot=  3758096384 LenX=  3758050306 LenY=  3758028256
 Requested convergence on RMS density matrix=1.00D-08 within 128 cycles.
 Requested convergence on MAX density matrix=1.00D-06.
 Requested convergence on             energy=1.00D-06.
 No special actions if energy rises.
 Fock matrices will be formed incrementally for  20 cycles.
 Integral accuracy reduced to 1.0D-05 until final iterations.

 Cycle   1  Pass 0  IDiag  1:
 FoFJK:  IHMeth= 1 ICntrl=       0 DoSepK=F KAlg= 0 I1Cent=           0 FoldK=F
 IRaf= 950000000 NMat=       1 IRICut=       1 DoRegI=T DoRafI=F ISym2E= 0 IDoP0=0 IntGTp=1.
 FoFCou: FMM=F IPFlag=           0 FMFlag=      100000 FMFlg1=           0
         NFxFlg=           0 DoJE=F BraDBF=F KetDBF=F FulRan=T
         wScrn=  0.000000 ICntrl=         0 IOpCl=  0 I1Cent=           0 NGrid=           0
         NMat0=    1 NMatS0=      1 NMatT0=    0 NMatD0=    1 NMtDS0=    0 NMtDT0=    0
 Symmetry not used in FoFCou.
 E= -420.573971752311    
 DIIS: error= 4.48D-02 at cycle   1 NSaved=   1.
 NSaved= 1 IEnMin= 1 EnMin= -420.573971752311     IErMin= 1 ErrMin= 4.48D-02
 ErrMax= 4.48D-02  0.00D+00 EMaxC= 1.00D-01 BMatC= 2.56D-01 BMatP= 2.56D-01
 IDIUse=3 WtCom= 5.52D-01 WtEn= 4.48D-01
 Coeff-Com:  0.100D+01
 Coeff-En:   0.100D+01
 Coeff:      0.100D+01
 Gap=     0.204 Goal=   None    Shift=    0.000
 GapD=    0.204 DampG=1.000 DampE=0.500 DampFc=0.5000 IDamp=-1.
 Damping current iteration by 5.00D-01
 RMSDP=8.82D-03 MaxDP=2.23D-01              OVMax= 2.65D-01

 Cycle   2  Pass 0  IDiag  1:
 RMSU=  4.38D-03    CP:  9.80D-01
 E= -420.638881886451     Delta-E=       -0.064910134140 Rises=F Damp=T
 DIIS: error= 1.64D-02 at cycle   2 NSaved=   2.
 NSaved= 2 IEnMin= 2 EnMin= -420.638881886451     IErMin= 2 ErrMin= 1.64D-02
 ErrMax= 1.64D-02  0.00D+00 EMaxC= 1.00D-01 BMatC= 4.24D-02 BMatP= 2.56D-01
 IDIUse=3 WtCom= 8.36D-01 WtEn= 1.64D-01
 Coeff-Com:  0.219D+00 0.781D+00
 Coeff-En:   0.333D+00 0.667D+00
 Coeff:      0.238D+00 0.762D+00
 Gap=     0.231 Goal=   None    Shift=    0.000
 RMSDP=2.77D-03 MaxDP=6.43D-02 DE=-6.49D-02 OVMax= 2.36D-01

 Cycle   3  Pass 0  IDiag  1:
 RMSU=  2.39D-03    CP:  9.68D-01  6.90D-01
 E= -420.771325005742     Delta-E=       -0.132443119292 Rises=F Damp=F
 DIIS: error= 1.73D-02 at cycle   3 NSaved=   3.
 NSaved= 3 IEnMin= 3 EnMin= -420.771325005742     IErMin= 2 ErrMin= 1.64D-02
 ErrMax= 1.73D-02  0.00D+00 EMaxC= 1.00D-01 BMatC= 3.99D-02 BMatP= 4.24D-02
 IDIUse=3 WtCom= 8.27D-01 WtEn= 1.73D-01
 Coeff-Com:  0.707D-01 0.483D+00 0.447D+00
 Coeff-En:   0.000D+00 0.000D+00 0.100D+01
 Coeff:      0.585D-01 0.399D+00 0.542D+00
 Gap=     0.220 Goal=   None    Shift=    0.000
 RMSDP=1.88D-03 MaxDP=5.95D-02 DE=-1.32D-01 OVMax= 9.77D-02

 Cycle   4  Pass 0  IDiag  1:
 RMSU=  1.12D-03    CP:  9.74D-01  8.32D-01  4.25D-01
 E= -420.796807617890     Delta-E=       -0.025482612148 Rises=F Damp=F
 DIIS: error= 1.02D-02 at cycle   4 NSaved=   4.
 NSaved= 4 IEnMin= 4 EnMin= -420.796807617890     IErMin= 4 ErrMin= 1.02D-02
 ErrMax= 1.02D-02  0.00D+00 EMaxC= 1.00D-01 BMatC= 1.12D-02 BMatP= 3.99D-02
 IDIUse=3 WtCom= 8.98D-01 WtEn= 1.02D-01
 Coeff-Com:  0.172D-01 0.840D-01 0.346D+00 0.553D+00
 Coeff-En:   0.000D+00 0.000D+00 0.249D+00 0.751D+00
 Coeff:      0.154D-01 0.755D-01 0.336D+00 0.573D+00
 Gap=     0.218 Goal=   None    Shift=    0.000
 RMSDP=7.33D-04 MaxDP=2.26D-02 DE=-2.55D-02 OVMax= 4.06D-02

 Cycle   5  Pass 0  IDiag  1:
 RMSU=  2.42D-04    CP:  9.73D-01  7.56D-01  6.15D-01  6.38D-01
 E= -420.805382386511     Delta-E=       -0.008574768621 Rises=F Damp=F
 DIIS: error= 2.09D-03 at cycle   5 NSaved=   5.
 NSaved= 5 IEnMin= 5 EnMin= -420.805382386511     IErMin= 5 ErrMin= 2.09D-03
 ErrMax= 2.09D-03  0.00D+00 EMaxC= 1.00D-01 BMatC= 3.93D-04 BMatP= 1.12D-02
 IDIUse=3 WtCom= 9.79D-01 WtEn= 2.09D-02
 Coeff-Com:  0.362D-02 0.469D-02 0.136D+00 0.307D+00 0.549D+00
 Coeff-En:   0.000D+00 0.000D+00 0.000D+00 0.000D+00 0.100D+01
 Coeff:      0.354D-02 0.459D-02 0.134D+00 0.300D+00 0.558D+00
 Gap=     0.218 Goal=   None    Shift=    0.000
 RMSDP=1.52D-04 MaxDP=4.55D-03 DE=-8.57D-03 OVMax= 6.69D-03

 Cycle   6  Pass 0  IDiag  1:
 RMSU=  9.16D-05    CP:  9.73D-01  7.70D-01  6.10D-01  6.56D-01  5.81D-01
 E= -420.805678077659     Delta-E=       -0.000295691149 Rises=F Damp=F
 DIIS: error= 4.44D-04 at cycle   6 NSaved=   6.
 NSaved= 6 IEnMin= 6 EnMin= -420.805678077659     IErMin= 6 ErrMin= 4.44D-04
 ErrMax= 4.44D-04  0.00D+00 EMaxC= 1.00D-01 BMatC= 3.22D-05 BMatP= 3.93D-04
 IDIUse=3 WtCom= 9.96D-01 WtEn= 4.44D-03
 Coeff-Com:  0.541D-03-0.280D-02 0.424D-01 0.106D+00 0.301D+00 0.553D+00
 Coeff-En:   0.000D+00 0.000D+00 0.000D+00 0.000D+00 0.186D-01 0.981D+00
 Coeff:      0.539D-03-0.279D-02 0.422D-01 0.105D+00 0.300D+00 0.555D+00
 Gap=     0.216 Goal=   None    Shift=    0.000
 RMSDP=4.60D-05 MaxDP=1.02D-03 DE=-2.96D-04 OVMax= 1.90D-03

 Cycle   7  Pass 0  IDiag  1:
 RMSU=  2.18D-05    CP:  9.73D-01  7.69D-01  6.10D-01  6.66D-01  6.46D-01
                    CP:  6.15D-01
 E= -420.805704087141     Delta-E=       -0.000026009482 Rises=F Damp=F
 DIIS: error= 1.68D-04 at cycle   7 NSaved=   7.
 NSaved= 7 IEnMin= 7 EnMin= -420.805704087141     IErMin= 7 ErrMin= 1.68D-04
 ErrMax= 1.68D-04  0.00D+00 EMaxC= 1.00D-01 BMatC= 2.69D-06 BMatP= 3.22D-05
 IDIUse=3 WtCom= 9.98D-01 WtEn= 1.68D-03
 Coeff-Com:  0.150D-03-0.204D-02 0.150D-01 0.387D-01 0.138D+00 0.311D+00
 Coeff-Com:  0.499D+00
 Coeff-En:   0.000D+00 0.000D+00 0.000D+00 0.000D+00 0.000D+00 0.000D+00
 Coeff-En:   0.100D+01
 Coeff:      0.149D-03-0.204D-02 0.150D-01 0.387D-01 0.137D+00 0.311D+00
 Coeff:      0.500D+00
 Gap=     0.217 Goal=   None    Shift=    0.000
 RMSDP=1.35D-05 MaxDP=2.93D-04 DE=-2.60D-05 OVMax= 8.12D-04

 Cycle   8  Pass 0  IDiag  1:
 RMSU=  6.86D-06    CP:  9.73D-01  7.68D-01  6.11D-01  6.65D-01  6.42D-01
                    CP:  6.54D-01  5.25D-01
 E= -420.805706689445     Delta-E=       -0.000002602303 Rises=F Damp=F
 DIIS: error= 5.35D-05 at cycle   8 NSaved=   8.
 NSaved= 8 IEnMin= 8 EnMin= -420.805706689445     IErMin= 8 ErrMin= 5.35D-05
 ErrMax= 5.35D-05  0.00D+00 EMaxC= 1.00D-01 BMatC= 2.49D-07 BMatP= 2.69D-06
 IDIUse=1 WtCom= 1.00D+00 WtEn= 0.00D+00
 Coeff-Com:  0.446D-04-0.769D-03 0.292D-02 0.738D-02 0.388D-01 0.962D-01
 Coeff-Com:  0.267D+00 0.589D+00
 Coeff:      0.446D-04-0.769D-03 0.292D-02 0.738D-02 0.388D-01 0.962D-01
 Coeff:      0.267D+00 0.589D+00
 Gap=     0.217 Goal=   None    Shift=    0.000
 RMSDP=4.80D-06 MaxDP=9.64D-05 DE=-2.60D-06 OVMax= 2.65D-04

 Initial convergence to 1.0D-05 achieved.  Increase integral accuracy.
 Cycle   9  Pass 1  IDiag  1:
 E= -420.805699936455     Delta-E=        0.000006752990 Rises=F Damp=F
 DIIS: error= 1.40D-05 at cycle   1 NSaved=   1.
 NSaved= 1 IEnMin= 1 EnMin= -420.805699936455     IErMin= 1 ErrMin= 1.40D-05
 ErrMax= 1.40D-05  0.00D+00 EMaxC= 1.00D-01 BMatC= 3.97D-08 BMatP= 3.97D-08
 IDIUse=1 WtCom= 1.00D+00 WtEn= 0.00D+00
 Coeff-Com:  0.100D+01
 Coeff:      0.100D+01
 Gap=     0.217 Goal=   None    Shift=    0.000
 RMSDP=4.80D-06 MaxDP=9.64D-05 DE= 6.75D-06 OVMax= 1.56D-04

 Cycle  10  Pass 1  IDiag  1:
 RMSU=  8.42D-06    CP:  1.00D+00
 E= -420.805699905762     Delta-E=        0.000000030693 Rises=F Damp=F
 DIIS: error= 2.65D-05 at cycle   2 NSaved=   2.
 NSaved= 2 IEnMin= 1 EnMin= -420.805699936455     IErMin= 1 ErrMin= 1.40D-05
 ErrMax= 2.65D-05  0.00D+00 EMaxC= 1.00D-01 BMatC= 6.23D-08 BMatP= 3.97D-08
 IDIUse=1 WtCom= 1.00D+00 WtEn= 0.00D+00
 Coeff-Com:  0.564D+00 0.436D+00
 Coeff:      0.564D+00 0.436D+00
 Gap=     0.217 Goal=   None    Shift=    0.000
 RMSDP=2.17D-06 MaxDP=5.17D-05 DE= 3.07D-08 OVMax= 1.23D-04

 Cycle  11  Pass 1  IDiag  1:
 RMSU=  2.08D-06    CP:  1.00D+00  9.27D-01
 E= -420.805699967800     Delta-E=       -0.000000062038 Rises=F Damp=F
 DIIS: error= 7.53D-06 at cycle   3 NSaved=   3.
 NSaved= 3 IEnMin= 3 EnMin= -420.805699967800     IErMin= 3 ErrMin= 7.53D-06
 ErrMax= 7.53D-06  0.00D+00 EMaxC= 1.00D-01 BMatC= 4.87D-09 BMatP= 3.97D-08
 IDIUse=1 WtCom= 1.00D+00 WtEn= 0.00D+00
 Coeff-Com:  0.143D+00 0.231D+00 0.626D+00
 Coeff:      0.143D+00 0.231D+00 0.626D+00
 Gap=     0.217 Goal=   None    Shift=    0.000
 RMSDP=6.92D-07 MaxDP=1.77D-05 DE=-6.20D-08 OVMax= 3.21D-05

 Cycle  12  Pass 1  IDiag  1:
 RMSU=  5.29D-07    CP:  1.00D+00  9.50D-01  8.07D-01
 E= -420.805699971840     Delta-E=       -0.000000004040 Rises=F Damp=F
 DIIS: error= 3.21D-06 at cycle   4 NSaved=   4.
 NSaved= 4 IEnMin= 4 EnMin= -420.805699971840     IErMin= 4 ErrMin= 3.21D-06
 ErrMax= 3.21D-06  0.00D+00 EMaxC= 1.00D-01 BMatC= 1.26D-09 BMatP= 4.87D-09
 IDIUse=1 WtCom= 1.00D+00 WtEn= 0.00D+00
 Coeff-Com:  0.673D-02 0.850D-01 0.401D+00 0.507D+00
 Coeff:      0.673D-02 0.850D-01 0.401D+00 0.507D+00
 Gap=     0.217 Goal=   None    Shift=    0.000
 RMSDP=2.70D-07 MaxDP=8.54D-06 DE=-4.04D-09 OVMax= 9.82D-06

 Cycle  13  Pass 1  IDiag  1:
 RMSU=  8.66D-08    CP:  1.00D+00  9.51D-01  8.21D-01  5.20D-01
 E= -420.805699972858     Delta-E=       -0.000000001018 Rises=F Damp=F
 DIIS: error= 9.94D-07 at cycle   5 NSaved=   5.
 NSaved= 5 IEnMin= 5 EnMin= -420.805699972858     IErMin= 5 ErrMin= 9.94D-07
 ErrMax= 9.94D-07  0.00D+00 EMaxC= 1.00D-01 BMatC= 8.66D-11 BMatP= 1.26D-09
 IDIUse=1 WtCom= 1.00D+00 WtEn= 0.00D+00
 Coeff-Com: -0.198D-02 0.433D-01 0.224D+00 0.320D+00 0.415D+00
 Coeff:     -0.198D-02 0.433D-01 0.224D+00 0.320D+00 0.415D+00
 Gap=     0.217 Goal=   None    Shift=    0.000
 RMSDP=5.93D-08 MaxDP=1.93D-06 DE=-1.02D-09 OVMax= 2.57D-06

 Cycle  14  Pass 1  IDiag  1:
 RMSU=  3.46D-08    CP:  1.00D+00  9.51D-01  8.28D-01  5.55D-01  5.20D-01
 E= -420.805699972921     Delta-E=       -0.000000000064 Rises=F Damp=F
 DIIS: error= 1.83D-07 at cycle   6 NSaved=   6.
 NSaved= 6 IEnMin= 6 EnMin= -420.805699972921     IErMin= 6 ErrMin= 1.83D-07
 ErrMax= 1.83D-07  0.00D+00 EMaxC= 1.00D-01 BMatC= 3.58D-12 BMatP= 8.66D-11
 IDIUse=1 WtCom= 1.00D+00 WtEn= 0.00D+00
 Coeff-Com: -0.156D-02 0.189D-01 0.997D-01 0.149D+00 0.234D+00 0.501D+00
 Coeff:     -0.156D-02 0.189D-01 0.997D-01 0.149D+00 0.234D+00 0.501D+00
 Gap=     0.217 Goal=   None    Shift=    0.000
 RMSDP=1.57D-08 MaxDP=3.82D-07 DE=-6.36D-11 OVMax= 7.42D-07

 Cycle  15  Pass 1  IDiag  1:
 RMSU=  1.03D-08    CP:  1.00D+00  9.52D-01  8.26D-01  5.55D-01  5.43D-01
                    CP:  6.83D-01
 E= -420.805699972926     Delta-E=       -0.000000000004 Rises=F Damp=F
 DIIS: error= 5.91D-08 at cycle   7 NSaved=   7.
 NSaved= 7 IEnMin= 7 EnMin= -420.805699972926     IErMin= 7 ErrMin= 5.91D-08
 ErrMax= 5.91D-08  0.00D+00 EMaxC= 1.00D-01 BMatC= 4.02D-13 BMatP= 3.58D-12
 IDIUse=1 WtCom= 1.00D+00 WtEn= 0.00D+00
 Coeff-Com: -0.683D-03 0.589D-02 0.313D-01 0.491D-01 0.843D-01 0.298D+00
 Coeff-Com:  0.532D+00
 Coeff:     -0.683D-03 0.589D-02 0.313D-01 0.491D-01 0.843D-01 0.298D+00
 Coeff:      0.532D+00
 Gap=     0.217 Goal=   None    Shift=    0.000
 RMSDP=4.46D-09 MaxDP=1.10D-07 DE=-4.43D-12 OVMax= 1.47D-07

 SCF Done:  E(RB3LYP) =  -420.805699973     A.U. after   15 cycles
            NFock= 15  Conv=0.45D-08     -V/T= 2.0090
 KE= 4.170677432647D+02 PE=-1.792671611921D+03 EE= 5.487324150367D+02
 Leave Link  502 at Mon Sep 21 10:04:59 2026, MaxMem=  3758096384 cpu:              42.5 elap:               5.5
 (Enter /opt/software/gaussian/16RevA.03/g16/l601.exe)
 Copying SCF densities to generalized density rwf, IOpCl= 0 IROHF=0.

 **********************************************************************

            Population analysis using the SCF density.

 **********************************************************************

 Orbital symmetries:
       Occupied  (A) (A) (A) (A) (A) (A) (A) (A) (A) (A) (A) (A)
                 (A) (A) (A) (A) (A) (A) (A) (A) (A) (A) (A) (A)
                 (A) (A) (A) (A) (A) (A) (A) (A)
       Virtual   (A) (A) (A) (A) (A) (A) (A) (A) (A) (A) (A) (A)
                 (A) (A) (A) (A) (A) (A) (A) (A) (A) (A) (A) (A)
                 (A) (A) (A) (A) (A) (A) (A) (A) (A) (A) (A) (A)
                 (A) (A) (A) (A) (A) (A) (A) (A) (A) (A) (A) (A)
                 (A) (A) (A) (A) (A) (A) (A) (A) (A) (A) (A) (A)
                 (A) (A) (A) (A) (A) (A) (A) (A) (A) (A) (A) (A)
                 (A) (A) (A) (A) (A) (A) (A) (A) (A) (A) (A) (A)
                 (A) (A) (A) (A) (A) (A) (A) (A) (A) (A) (A) (A)
                 (A) (A) (A) (A) (A) (A) (A) (A) (A) (A) (A) (A)
                 (A) (A) (A) (A) (A) (A) (A)
 The electronic state is 1-A.
 Alpha  occ. eigenvalues --  -19.20163 -19.12442 -10.31715 -10.22380 -10.21967
 Alpha  occ. eigenvalues --  -10.21427 -10.21301 -10.20940 -10.20884  -1.12011
 Alpha  occ. eigenvalues --   -1.01326  -0.87694  -0.77794  -0.76738  -0.65528
 Alpha  occ. eigenvalues --   -0.62873  -0.61875  -0.56711  -0.50647  -0.47822
 Alpha  occ. eigenvalues --   -0.46742  -0.45463  -0.44237  -0.43392  -0.39768
 Alpha  occ. eigenvalues --   -0.38300  -0.37055  -0.36343  -0.31421  -0.27474
 Alpha  occ. eigenvalues --   -0.26927  -0.26793
 Alpha virt. eigenvalues --   -0.05129  -0.02177   0.04635   0.05754   0.09340
 Alpha virt. eigenvalues --    0.13278   0.14722   0.16049   0.17826   0.20205
 Alpha virt. eigenvalues --    0.23337   0.26560   0.28517   0.29491   0.32545
 Alpha virt. eigenvalues --    0.36326   0.41810   0.49319   0.49615   0.52382
 Alpha virt. eigenvalues --    0.53550   0.53782   0.55087   0.57401   0.57635
 Alpha virt. eigenvalues --    0.58137   0.59241   0.59886   0.60595   0.62462
 Alpha virt. eigenvalues --    0.63941   0.66726   0.69169   0.70576   0.75515
 Alpha virt. eigenvalues --    0.77890   0.80965   0.81951   0.82177   0.83595
 Alpha virt. eigenvalues --    0.88409   0.92025   0.92472   0.92823   0.94235
 Alpha virt. eigenvalues --    0.98332   1.03201   1.04529   1.04832   1.07258
 Alpha virt. eigenvalues --    1.11269   1.14965   1.17130   1.23072   1.25089
 Alpha virt. eigenvalues --    1.25428   1.29300   1.34991   1.40666   1.41088
 Alpha virt. eigenvalues --    1.42515   1.44797   1.46751   1.47082   1.49077
 Alpha virt. eigenvalues --    1.51429   1.65586   1.67371   1.75817   1.76338
 Alpha virt. eigenvalues --    1.78646   1.84825   1.85977   1.88240   1.89394
 Alpha virt. eigenvalues --    1.90063   1.92430   1.95693   2.01556   2.03579
 Alpha virt. eigenvalues --    2.06954   2.11988   2.13284   2.14163   2.15094
 Alpha virt. eigenvalues --    2.26319   2.27343   2.28021   2.28686   2.45609
 Alpha virt. eigenvalues --    2.49868   2.50453   2.57649   2.58249   2.60064
 Alpha virt. eigenvalues --    2.65642   2.69322   2.71802   2.73456   2.76207
 Alpha virt. eigenvalues --    2.83622   2.88488   2.97530   3.09574   3.18143
 Alpha virt. eigenvalues --    3.41147   3.89047   4.05635   4.08886   4.09416
 Alpha virt. eigenvalues --    4.23755   4.30097   4.39145   4.47187   4.69348
          Condensed to atoms (all electrons):
               1          2          3          4          5          6
     1  C    4.974720   0.489662  -0.036394  -0.038643   0.516801  -0.032208
     2  C    0.489662   4.904893  -0.028163   0.361842  -0.021933   0.539316
     3  C   -0.036394  -0.028163   4.837031   0.004728  -0.023351   0.557250
     4  H   -0.038643   0.361842   0.004728   0.576468   0.003657  -0.043484
     5  C    0.516801  -0.021933  -0.023351   0.003657   5.075266  -0.034834
     6  C   -0.032208   0.539316   0.557250  -0.043484  -0.034834   4.839140
     7  H    0.358114  -0.042528   0.000437  -0.005035  -0.041507   0.004417
     8  C   -0.025109   0.005917   0.003602  -0.000105   0.271070   0.000139
     9  C   -0.067636  -0.042404   0.524168   0.000734   0.461797  -0.035702
    10  H    0.000789   0.004600   0.359694  -0.000178   0.003527  -0.040577
    11  H    0.004521  -0.042592  -0.042462  -0.005425   0.000626   0.360353
    12  H    0.004984   0.000572  -0.024976   0.000018  -0.058492   0.004058
    13  O    0.004222   0.000846  -0.000035   0.000002  -0.102687  -0.000017
    14  H   -0.000669  -0.000037   0.000550   0.000001  -0.008417   0.000040
    15  O    0.005268  -0.000050   0.000757   0.000000  -0.103405  -0.000022
               7          8          9         10         11         12
     1  C    0.358114  -0.025109  -0.067636   0.000789   0.004521   0.004984
     2  C   -0.042528   0.005917  -0.042404   0.004600  -0.042592   0.000572
     3  C    0.000437   0.003602   0.524168   0.359694  -0.042462  -0.024976
     4  H   -0.005035  -0.000105   0.000734  -0.000178  -0.005425   0.000018
     5  C   -0.041507   0.271070   0.461797   0.003527   0.000626  -0.058492
     6  C    0.004417   0.000139  -0.035702  -0.040577   0.360353   0.004058
     7  H    0.543003  -0.007243   0.005566   0.000016  -0.000165  -0.000154
     8  C   -0.007243   4.376349  -0.031344  -0.000099   0.000005  -0.006157
     9  C    0.005566  -0.031344   5.082890  -0.040687   0.005425   0.332698
    10  H    0.000016  -0.000099  -0.040687   0.581462  -0.005583  -0.005324
    11  H   -0.000165   0.000005   0.005425  -0.005583   0.581854  -0.000188
    12  H   -0.000154  -0.006157   0.332698  -0.005324  -0.000188   0.604044
    13  O    0.012866   0.599858   0.003821   0.000000  -0.000000   0.000017
    14  H   -0.000058  -0.020324   0.016344  -0.000024  -0.000001   0.022012
    15  O    0.000299   0.286125  -0.002310   0.000006   0.000000  -0.001075
              13         14         15
     1  C    0.004222  -0.000669   0.005268
     2  C    0.000846  -0.000037  -0.000050
     3  C   -0.000035   0.000550   0.000757
     4  H    0.000002   0.000001   0.000000
     5  C   -0.102687  -0.008417  -0.103405
     6  C   -0.000017   0.000040  -0.000022
     7  H    0.012866  -0.000058   0.000299
     8  C    0.599858  -0.020324   0.286125
     9  C    0.003821   0.016344  -0.002310
    10  H    0.000000  -0.000024   0.000006
    11  H   -0.000000  -0.000001   0.000000
    12  H    0.000017   0.022012  -0.001075
    13  O    8.024846   0.004996  -0.083435
    14  H    0.004996   0.341615   0.221345
    15  O   -0.083435   0.221345   8.221975
 Mulliken charges:
               1
     1  C   -0.158419
     2  C   -0.129939
     3  C   -0.132835
     4  H    0.145421
     5  C    0.061884
     6  C   -0.117868
     7  H    0.171972
     8  C    0.547318
     9  C   -0.213358
    10  H    0.142380
    11  H    0.143630
    12  H    0.127965
    13  O   -0.465299
    14  H    0.422627
    15  O   -0.545478
 Sum of Mulliken charges =  -0.00000
 Mulliken charges with hydrogens summed into heavy atoms:
               1
     1  C    0.013553
     2  C    0.015482
     3  C    0.009545
     5  C    0.061884
     6  C    0.025763
     8  C    0.547318
     9  C   -0.085394
    13  O   -0.465299
    15  O   -0.122851
 Electronic spatial extent (au):  <R**2>=           1171.3486
 Charge=             -0.0000 electrons
 Dipole moment (field-independent basis, Debye):
    X=             -4.2655    Y=              2.4924    Z=              0.0165  Tot=              4.9403
 Quadrupole moment (field-independent basis, Debye-Ang):
   XX=            -56.8972   YY=            -45.1159   ZZ=            -52.9494
   XY=              5.1435   XZ=              0.0147   YZ=              0.0015
 Traceless Quadrupole moment (field-independent basis, Debye-Ang):
   XX=             -5.2431   YY=              6.5383   ZZ=             -1.2952
   XY=              5.1435   XZ=              0.0147   YZ=              0.0015
 Octapole moment (field-independent basis, Debye-Ang**2):
  XXX=            -35.9779  YYY=              9.7952  ZZZ=              0.0212  XYY=             -2.6703
  XXY=              8.3146  XXZ=              0.0627  XZZ=             11.1869  YZZ=             -0.1517
  YYZ=              0.0793  XYZ=              0.0416
 Hexadecapole moment (field-independent basis, Debye-Ang**3):
 XXXX=          -1072.0399 YYYY=           -347.7964 ZZZZ=            -50.2980 XXXY=             15.5312
 XXXZ=             -0.0865 YYYX=             21.3373 YYYZ=              0.0623 ZZZX=              0.0299
 ZZZY=              0.0665 XXYY=           -236.8215 XXZZ=           -189.4209 YYZZ=            -77.8080
 XXYZ=             -0.0502 YYXZ=              0.1410 ZZXY=              0.1538
 N-N= 4.060657536470D+02 E-N=-1.792671612828D+03  KE= 4.170677432647D+02
 No NMR shielding tensors so no spin-rotation constants.
 Leave Link  601 at Mon Sep 21 10:04:59 2026, MaxMem=  3758096384 cpu:               0.9 elap:               0.1
 (Enter /opt/software/gaussian/16RevA.03/g16/l701.exe)
 ... and contract with generalized density number  0.
 Compute integral first derivatives.
 Leave Link  701 at Mon Sep 21 10:04:59 2026, MaxMem=  3758096384 cpu:               0.6 elap:               0.1
 (Enter /opt/software/gaussian/16RevA.03/g16/l702.exe)
 L702 exits ... SP integral derivatives will be done elsewhere.
 Leave Link  702 at Mon Sep 21 10:04:59 2026, MaxMem=  3758096384 cpu:               0.1 elap:               0.0
 (Enter /opt/software/gaussian/16RevA.03/g16/l703.exe)
 Integral derivatives from FoFJK, PRISM(SPDF).
 Compute integral first derivatives, UseDBF=F ICtDFT=           0.
 Calling FoFJK, ICntrl=      2127 FMM=F ISym2X=0 I1Cent= 0 IOpClX= 0 NMat=1 NMatS=1 NMatT=0.
 FoFJK:  IHMeth= 1 ICntrl=    2127 DoSepK=F KAlg= 0 I1Cent=           0 FoldK=F
 IRaf=         0 NMat=       1 IRICut=       1 DoRegI=T DoRafI=F ISym2E= 0 IDoP0=0 IntGTp=1.
 FoFCou: FMM=F IPFlag=           0 FMFlag=      100000 FMFlg1=         800
         NFxFlg=           0 DoJE=F BraDBF=F KetDBF=F FulRan=T
         wScrn=  0.000000 ICntrl=      2127 IOpCl=  0 I1Cent=           0 NGrid=           0
         NMat0=    1 NMatS0=      1 NMatT0=    0 NMatD0=    1 NMtDS0=    0 NMtDT0=    0
 Symmetry not used in FoFCou.
 Leave Link  703 at Mon Sep 21 10:05:00 2026, MaxMem=  3758096384 cpu:               9.4 elap:               1.2
 (Enter /opt/software/gaussian/16RevA.03/g16/l716.exe)
 Dipole        =-1.67815947D+00 9.80566018D-01 6.49625256D-03
 ***** Axes restored to original set *****
 -------------------------------------------------------------------
 Center     Atomic                   Forces (Hartrees/Bohr)
 Number     Number              X              Y              Z
 -------------------------------------------------------------------
      1        6          -0.006472972    0.001965668    0.000329809
      2        6          -0.000854346    0.002429307   -0.000008474
      3        6           0.005027897   -0.002560516   -0.000333510
      4        1           0.000800669    0.000661303   -0.000060757
      5        6          -0.000921803   -0.000889699    0.000227757
      6        6          -0.001493136   -0.003140806    0.000237220
      7        1           0.004718609    0.000950474   -0.000381107
      8        6          -0.043505264    0.006820959    0.003015123
      9        6          -0.006345030   -0.001623171    0.000549428
     10        1           0.000135564    0.000913310   -0.000050591
     11        1           0.000752960    0.000371368   -0.000052183
     12        1           0.001585745   -0.004751141    0.000130442
     13        8          -0.001221646   -0.003093924    0.000395798
     14        1           0.009066103    0.005204003   -0.000939524
     15        8           0.038726652   -0.003257137   -0.003059432
 -------------------------------------------------------------------
 Cartesian Forces:  Max     0.043505264 RMS     0.009167553
 Leave Link  716 at Mon Sep 21 10:05:00 2026, MaxMem=  3758096384 cpu:               0.2 elap:               0.1
 (Enter /opt/software/gaussian/16RevA.03/g16/l103.exe)

 GradGradGradGradGradGradGradGradGradGradGradGradGradGradGradGradGradGrad
 Berny optimization.
 FormGI is forming the generalized inverse of G from B-inverse, IUseBI=4.
 Internal  Forces:  Max     0.047922982 RMS     0.007620512
 Search for a local minimum.
 Step number   1 out of a maximum of   77
 All quantities printed in internal units (Hartrees-Bohrs-Radians)
 RMS Force = .76205D-02 SwitMx=.10000D-02 MixMth= 1
 Mixed Optimization -- RFO/linear search
 Second derivative matrix not updated -- first step.
 ITU=  0
     Eigenvalues ---    0.00688   0.01405   0.01645   0.02086   0.02111
     Eigenvalues ---    0.02133   0.02156   0.02177   0.02182   0.02186
     Eigenvalues ---    0.02193   0.02918   0.16000   0.16000   0.16000
     Eigenvalues ---    0.16000   0.16000   0.16000   0.22000   0.22000
     Eigenvalues ---    0.23474   0.25000   0.25000   0.25000   0.31768
     Eigenvalues ---    0.35090   0.35099   0.35107   0.35110   0.35228
     Eigenvalues ---    0.41956   0.42123   0.45705   0.46341   0.46623
     Eigenvalues ---    0.46888   0.53236   0.65204   0.98036
 RFO step:  Lambda=-1.03499290D-02 EMin= 6.88180568D-03
 Linear search not attempted -- first point.
 Iteration  1 RMS(Cart)=  0.08690243 RMS(Int)=  0.00520955
 Iteration  2 RMS(Cart)=  0.01015077 RMS(Int)=  0.00005566
 Iteration  3 RMS(Cart)=  0.00009937 RMS(Int)=  0.00001163
 Iteration  4 RMS(Cart)=  0.00000002 RMS(Int)=  0.00001163
 ITry= 1 IFail=0 DXMaxC= 4.26D-01 DCOld= 1.00D+10 DXMaxT= 3.00D-01 DXLimC= 3.00D+00 Rises=F
 Variable       Old X    -DE/DX   Delta X   Delta X   Delta X     New X
                                 (Linear)    (Quad)   (Total)
    R1        2.63391  -0.00050   0.00000  -0.00120  -0.00120   2.63271
    R2        2.64441  -0.00001   0.00000  -0.00022  -0.00022   2.64419
    R3        2.05529  -0.00176   0.00000  -0.00487  -0.00487   2.05042
    R4        2.05497  -0.00082   0.00000  -0.00228  -0.00228   2.05269
    R5        2.63061   0.00378   0.00000   0.00792   0.00792   2.63853
    R6        2.63098   0.00242   0.00000   0.00523   0.00523   2.63621
    R7        2.63478  -0.00040   0.00000  -0.00069  -0.00069   2.63409
    R8        2.05502  -0.00070   0.00000  -0.00195  -0.00195   2.05307
    R9        2.84570   0.00647   0.00000   0.01972   0.01972   2.86542
   R10        2.65025   0.00526   0.00000   0.01132   0.01132   2.66157
   R11        2.05515  -0.00068   0.00000  -0.00189  -0.00189   2.05325
   R12        2.29436  -0.00206   0.00000  -0.00208  -0.00208   2.29227
   R13        2.47045   0.04792   0.00000   0.07235   0.07235   2.54280
   R14        2.05307   0.00156   0.00000   0.00429   0.00429   2.05736
   R15        1.83434  -0.00243   0.00000  -0.00447  -0.00447   1.82987
    A1        2.10692   0.00107   0.00000   0.00380   0.00380   2.11072
    A2        2.07873   0.00409   0.00000   0.02523   0.02523   2.10396
    A3        2.09754  -0.00516   0.00000  -0.02903  -0.02903   2.06851
    A4        2.09356  -0.00083   0.00000  -0.00442  -0.00442   2.08915
    A5        2.09552   0.00034   0.00000   0.00115   0.00115   2.09668
    A6        2.09410   0.00048   0.00000   0.00326   0.00326   2.09736
    A7        2.09759  -0.00087   0.00000  -0.00323  -0.00323   2.09435
    A8        2.09218   0.00105   0.00000   0.00523   0.00523   2.09741
    A9        2.09342  -0.00018   0.00000  -0.00200  -0.00200   2.09142
   A10        2.08096  -0.01466   0.00000  -0.05604  -0.05604   2.02492
   A11        2.07206  -0.00152   0.00000  -0.00641  -0.00641   2.06565
   A12        2.13017   0.01618   0.00000   0.06245   0.06244   2.19261
   A13        2.09121  -0.00038   0.00000  -0.00127  -0.00127   2.08994
   A14        2.09579   0.00069   0.00000   0.00359   0.00359   2.09938
   A15        2.09619  -0.00031   0.00000  -0.00232  -0.00232   2.09387
   A16        2.15249  -0.01250   0.00000  -0.04802  -0.04803   2.10446
   A17        2.02086   0.01897   0.00000   0.07288   0.07287   2.09373
   A18        2.10983  -0.00647   0.00000  -0.02483  -0.02484   2.08499
   A19        2.10308   0.00136   0.00000   0.00595   0.00595   2.10903
   A20        2.06707  -0.00557   0.00000  -0.03167  -0.03168   2.03540
   A21        2.11303   0.00421   0.00000   0.02572   0.02572   2.13875
   A22        1.87243   0.01873   0.00000   0.10995   0.10995   1.98238
    D1       -3.14011  -0.00002   0.00000  -0.00070  -0.00070  -3.14081
    D2        0.00116  -0.00001   0.00000  -0.00040  -0.00041   0.00075
    D3        0.00010  -0.00000   0.00000   0.00000   0.00001   0.00010
    D4        3.14137   0.00001   0.00000   0.00029   0.00029  -3.14152
    D5        3.13942   0.00004   0.00000   0.00128   0.00125   3.14066
    D6       -0.00193   0.00001   0.00000   0.00023   0.00024  -0.00170
    D7       -0.00078   0.00001   0.00000   0.00053   0.00051  -0.00027
    D8        3.14106  -0.00002   0.00000  -0.00052  -0.00050   3.14056
    D9        0.00044   0.00000   0.00000   0.00003   0.00003   0.00046
   D10       -3.14135  -0.00001   0.00000  -0.00022  -0.00022  -3.14157
   D11       -3.14148   0.00001   0.00000   0.00032   0.00031  -3.14116
   D12       -0.00008   0.00000   0.00000   0.00007   0.00007  -0.00001
   D13       -0.00123   0.00002   0.00000   0.00054   0.00055  -0.00068
   D14        3.14056   0.00003   0.00000   0.00079   0.00079   3.14135
   D15        3.14057  -0.00001   0.00000  -0.00032  -0.00031   3.14026
   D16       -0.00082  -0.00000   0.00000  -0.00007  -0.00007  -0.00090
   D17        0.00043  -0.00002   0.00000  -0.00073  -0.00074  -0.00031
   D18        3.14115  -0.00006   0.00000  -0.00201  -0.00200   3.13915
   D19       -3.14137   0.00000   0.00000   0.00013   0.00012  -3.14125
   D20       -0.00065  -0.00003   0.00000  -0.00115  -0.00114  -0.00179
   D21        0.00420   0.00017   0.00000   0.00876   0.00873   0.01293
   D22       -3.13440  -0.00001   0.00000   0.00134   0.00136  -3.13305
   D23       -3.13765   0.00020   0.00000   0.00983   0.00981  -3.12783
   D24        0.00694   0.00002   0.00000   0.00241   0.00244   0.00937
   D25        0.00114   0.00001   0.00000   0.00034   0.00034   0.00148
   D26       -3.13956   0.00005   0.00000   0.00168   0.00171  -3.13785
   D27       -3.14020  -0.00002   0.00000  -0.00072  -0.00076  -3.14096
   D28        0.00228   0.00002   0.00000   0.00062   0.00061   0.00289
   D29        0.00470   0.00014   0.00000   0.00499   0.00502   0.00973
   D30       -3.13398  -0.00003   0.00000  -0.00219  -0.00223  -3.13620
         Item               Value     Threshold  Converged?
 Maximum Force            0.047923     0.000450     NO 
 RMS     Force            0.007621     0.000300     NO 
 Maximum Displacement     0.425528     0.001800     NO 
 RMS     Displacement     0.094794     0.001200     NO 
 Predicted change in Energy=-5.365591D-03
 Lowest energy point so far.  Saving SCF results.
 GradGradGradGradGradGradGradGradGradGradGradGradGradGradGradGradGradGrad

 Leave Link  103 at Mon Sep 21 10:05:00 2026, MaxMem=  3758096384 cpu:               1.1 elap:               0.2
 (Enter /opt/software/gaussian/16RevA.03/g16/l202.exe)
                          Input orientation:                          
 ---------------------------------------------------------------------
 Center     Atomic      Atomic             Coordinates (Angstroms)
 Number     Number       Type             X           Y           Z
 ---------------------------------------------------------------------
      1          6           0       -0.828216    2.002475    0.023234
      2          6           0       -1.509686    0.790683    0.113117
      3          6           0        0.587944   -0.398570   -0.005061
      4          1           0       -2.592884    0.787129    0.194233
      5          6           0        0.566549    2.037186   -0.083121
      6          6           0       -0.803118   -0.413506    0.098918
      7          1           0       -1.370489    2.942227    0.033698
      8          6           0        1.192534    3.415173   -0.175365
      9          6           0        1.267066    0.815369   -0.095098
     10          1           0        1.144785   -1.331398   -0.015510
     11          1           0       -1.332048   -1.360027    0.168850
     12          1           0        2.351810    0.762973   -0.171713
     13          8           0        0.500414    4.410804   -0.142128
     14          1           0        2.995506    2.693286   -0.313130
     15          8           0        2.527341    3.540604   -0.290155
 ---------------------------------------------------------------------
                    Distance matrix (angstroms):
                    1          2          3          4          5
     1  C    0.000000
     2  C    1.393169   0.000000
     3  C    2.787710   2.414195   0.000000
     4  H    2.149503   1.086237   3.400480   0.000000
     5  C    1.399245   2.429615   2.437101   3.409045   0.000000
     6  C    2.417296   1.396249   1.395022   2.157284   2.813364
     7  H    1.085036   2.157504   3.872710   2.482836   2.141229
     8  C    2.473578   3.777984   3.865122   4.623052   1.516316
     9  C    2.411105   2.784657   1.393902   3.870882   1.408440
    10  H    3.874137   3.400880   1.086438   4.301432   3.418521
    11  H    3.403156   2.158753   2.154301   2.490106   3.899900
    12  H    3.418616   3.872086   2.118532   4.958276   2.195137
    13  O    2.755477   4.148605   4.812123   4.776260   2.375272
    14  H    3.900155   4.909006   3.930755   5.926294   2.526500
    15  O    3.704567   4.901252   4.399958   5.833778   2.479482
                    6          7          8          9         10
     6  C    0.000000
     7  H    3.403984   0.000000
     8  C    4.326273   2.614664   0.000000
     9  C    2.415251   3.390694   2.602110   0.000000
    10  H    2.156373   4.959122   4.749502   2.151719   0.000000
    11  H    1.086536   4.304548   5.412442   3.399619   2.483849
    12  H    3.378004   4.318200   2.894495   1.088708   2.422333
    13  O    5.003126   2.384934   1.213019   3.676564   5.779631
    14  H    4.924579   4.386818   1.947000   2.561565   4.439800
    15  O    5.184430   3.956768   1.345593   3.008861   5.071813
                   11         12         13         14         15
    11  H    0.000000
    12  H    4.265433   0.000000
    13  O    6.062765   4.090870   0.000000
    14  H    5.948897   2.039719   3.033908   0.000000
    15  O    6.254738   2.785691   2.210791   0.968325   0.000000
 Stoichiometry    C7H6O2
 Framework group  C1[X(C7H6O2)]
 Deg. of freedom    39
 Full point group                 C1      NOp   1
 RotChk:  IX=0 Diff= 6.32D-03
 Largest Abelian subgroup         C1      NOp   1
 Largest concise Abelian subgroup C1      NOp   1
                         Standard orientation:                         
 ---------------------------------------------------------------------
 Center     Atomic      Atomic             Coordinates (Angstroms)
 Number     Number       Type             X           Y           Z
 ---------------------------------------------------------------------
      1          6           0       -0.476296   -1.191957    0.003364
      2          6           0       -1.869440   -1.200277    0.004285
      3          6           0       -1.884604    1.213856   -0.004003
      4          1           0       -2.401966   -2.147016    0.007691
      5          6           0        0.235826    0.012516   -0.000056
      6          6           0       -2.577522    0.003102    0.000883
      7          1           0        0.080753   -2.123082    0.005924
      8          6           0        1.747315   -0.108383    0.000534
      9          6           0       -0.490712    1.219091   -0.004655
     10          1           0       -2.428562    2.154305   -0.007924
     11          1           0       -3.664051   -0.000453    0.001615
     12          1           0       -0.006559    2.194203   -0.010932
     13          8           0        2.279142   -1.198553   -0.009694
     14          1           0        1.998712    1.822219    0.020162
     15          8           0        2.510142    1.000070    0.007364
 ---------------------------------------------------------------------
 Rotational constants (GHZ):           3.8586632           1.2030056           0.9171004
 Leave Link  202 at Mon Sep 21 10:05:01 2026, MaxMem=  3758096384 cpu:               0.3 elap:               0.1
 (Enter /opt/software/gaussian/16RevA.03/g16/l301.exe)
 Standard basis: 6-31G(d) (6D, 7F)
 Ernie: Thresh=  0.10000D-02 Tol=  0.10000D-05 Strict=F.
 There are   147 symmetry adapted cartesian basis functions of A   symmetry.
 There are   147 symmetry adapted basis functions of A   symmetry.
   147 basis functions,   276 primitive gaussians,   147 cartesian basis functions
    32 alpha electrons       32 beta electrons
       nuclear repulsion energy       403.2716021686 Hartrees.
 IExCor=  402 DFT=T Ex+Corr=B3LYP ExCW=0 ScaHFX=  0.200000
 ScaDFX=  0.800000  0.720000  1.000000  0.810000 ScalE2=  1.000000  1.000000
 IRadAn=      5 IRanWt=     -1 IRanGd=            0 ICorTp=0 IEmpDi=  4
 NAtoms=   15 NActive=   15 NUniq=   15 SFac= 1.00D+00 NAtFMM=   60 NAOKFM=F Big=F
 Integral buffers will be    131072 words long.
 Raffenetti 2 integral format.
 Two-electron integral symmetry is turned on.
 Leave Link  301 at Mon Sep 21 10:05:01 2026, MaxMem=  3758096384 cpu:               0.5 elap:               0.1
 (Enter /opt/software/gaussian/16RevA.03/g16/l302.exe)
 NPDir=0 NMtPBC=     1 NCelOv=     1 NCel=       1 NClECP=     1 NCelD=      1
         NCelK=      1 NCelE2=     1 NClLst=     1 CellRange=     0.0.
 One-electron integrals computed using PRISM.
 One-electron integral symmetry used in STVInt
 NBasis=   147 RedAO= T EigKep=  4.68D-04  NBF=   147
 NBsUse=   147 1.00D-06 EigRej= -1.00D+00 NBFU=   147
 Precomputing XC quadrature grid using
 IXCGrd= 4 IRadAn=           5 IRanWt=          -1 IRanGd=           0 AccXCQ= 0.00D+00.
 Generated NRdTot=       0 NPtTot=           0 NUsed=           0 NTot=          32
 NSgBfM=   147   147   147   147   147 MxSgAt=    15 MxSgA2=    15.
 Leave Link  302 at Mon Sep 21 10:05:01 2026, MaxMem=  3758096384 cpu:               1.0 elap:               0.1
 (Enter /opt/software/gaussian/16RevA.03/g16/l303.exe)
 DipDrv:  MaxL=1.
 Leave Link  303 at Mon Sep 21 10:05:01 2026, MaxMem=  3758096384 cpu:               0.2 elap:               0.0
 (Enter /opt/software/gaussian/16RevA.03/g16/l401.exe)
 Initial guess from the checkpoint file:  "job.chk"
 B after Tr=    -0.000000    0.000000    0.000000
         Rot=    0.999996    0.000003   -0.000095    0.002907 Ang=   0.33 deg.
 Guess basis will be translated and rotated to current coordinates.
 JPrj=2 DoOrth=T DoCkMO=T.
 Generating alternative initial guess.
 ExpMin= 1.61D-01 ExpMax= 5.48D+03 ExpMxC= 8.25D+02 IAcc=2 IRadAn=         4 AccDes= 0.00D+00
 Harris functional with IExCor=  402 and IRadAn=       4 diagonalized for initial guess.
 HarFok:  IExCor=  402 AccDes= 0.00D+00 IRadAn=         4 IDoV= 1 UseB2=F ITyADJ=14
 ICtDFT=  3500011 ScaDFX=  1.000000  1.000000  1.000000  1.000000
 FoFCou: FMM=F IPFlag=           0 FMFlag=      100000 FMFlg1=           0
         NFxFlg=           0 DoJE=T BraDBF=F KetDBF=T FulRan=T
         wScrn=  0.000000 ICntrl=       500 IOpCl=  0 I1Cent=   200000004 NGrid=           0
         NMat0=    1 NMatS0=      1 NMatT0=    0 NMatD0=    1 NMtDS0=    0 NMtDT0=    0
 Petite list used in FoFCou.
 Harris En= -420.839497774572    
 Leave Link  401 at Mon Sep 21 10:05:01 2026, MaxMem=  3758096384 cpu:               2.4 elap:               0.3
 (Enter /opt/software/gaussian/16RevA.03/g16/l502.exe)
 Integral symmetry usage will be decided dynamically.
 Closed shell SCF:
 Using DIIS extrapolation, IDIIS=  1040.
 NGot=  3758096384 LenX=  3758050306 LenY=  3758028256
 Requested convergence on RMS density matrix=1.00D-08 within 128 cycles.
 Requested convergence on MAX density matrix=1.00D-06.
 Requested convergence on             energy=1.00D-06.
 No special actions if energy rises.
 Fock matrices will be formed incrementally for  20 cycles.
 Integral accuracy reduced to 1.0D-05 until final iterations.

 Cycle   1  Pass 0  IDiag  1:
 FoFJK:  IHMeth= 1 ICntrl=       0 DoSepK=F KAlg= 0 I1Cent=           0 FoldK=F
 IRaf= 940000000 NMat=       1 IRICut=       1 DoRegI=T DoRafI=F ISym2E= 0 IDoP0=0 IntGTp=1.
 FoFCou: FMM=F IPFlag=           0 FMFlag=      100000 FMFlg1=           0
         NFxFlg=           0 DoJE=F BraDBF=F KetDBF=F FulRan=T
         wScrn=  0.000000 ICntrl=         0 IOpCl=  0 I1Cent=           0 NGrid=           0
         NMat0=    1 NMatS0=      1 NMatT0=    0 NMatD0=    1 NMtDS0=    0 NMtDT0=    0
 Symmetry not used in FoFCou.
 E= -420.794341780906    
 DIIS: error= 6.33D-03 at cycle   1 NSaved=   1.
 NSaved= 1 IEnMin= 1 EnMin= -420.794341780906     IErMin= 1 ErrMin= 6.33D-03
 ErrMax= 6.33D-03  0.00D+00 EMaxC= 1.00D-01 BMatC= 1.02D-02 BMatP= 1.02D-02
 IDIUse=3 WtCom= 9.37D-01 WtEn= 6.33D-02
 Coeff-Com:  0.100D+01
 Coeff-En:   0.100D+01
 Coeff:      0.100D+01
 Gap=     1.912 Goal=   None    Shift=    0.000
 GapD=    1.912 DampG=2.000 DampE=1.000 DampFc=2.0000 IDamp=-1.
 RMSDP=1.18D-03 MaxDP=2.67D-02              OVMax= 2.33D-02

 Cycle   2  Pass 0  IDiag  1:
 RMSU=  1.18D-03    CP:  9.98D-01
 E= -420.808534466830     Delta-E=       -0.014192685924 Rises=F Damp=F
 DIIS: error= 1.58D-03 at cycle   2 NSaved=   2.
 NSaved= 2 IEnMin= 2 EnMin= -420.808534466830     IErMin= 2 ErrMin= 1.58D-03
 ErrMax= 1.58D-03  0.00D+00 EMaxC= 1.00D-01 BMatC= 3.95D-04 BMatP= 1.02D-02
 IDIUse=3 WtCom= 9.84D-01 WtEn= 1.58D-02
 Coeff-Com:  0.171D-01 0.983D+00
 Coeff-En:   0.000D+00 0.100D+01
 Coeff:      0.169D-01 0.983D+00
 Gap=     0.214 Goal=   None    Shift=    0.000
 RMSDP=3.14D-04 MaxDP=7.86D-03 DE=-1.42D-02 OVMax= 1.65D-02

 Cycle   3  Pass 0  IDiag  1:
 RMSU=  3.13D-04    CP:  9.99D-01  1.01D+00
 E= -420.807915204428     Delta-E=        0.000619262402 Rises=F Damp=F
 DIIS: error= 2.78D-03 at cycle   3 NSaved=   3.
 NSaved= 3 IEnMin= 2 EnMin= -420.808534466830     IErMin= 2 ErrMin= 1.58D-03
 ErrMax= 2.78D-03  0.00D+00 EMaxC= 1.00D-01 BMatC= 1.18D-03 BMatP= 3.95D-04
 IDIUse=3 WtCom= 1.59D-01 WtEn= 8.41D-01
 Coeff-Com: -0.315D-01 0.659D+00 0.372D+00
 Coeff-En:   0.000D+00 0.707D+00 0.293D+00
 Coeff:     -0.503D-02 0.699D+00 0.306D+00
 Gap=     0.215 Goal=   None    Shift=    0.000
 RMSDP=1.96D-04 MaxDP=6.08D-03 DE= 6.19D-04 OVMax= 1.12D-02

 Cycle   4  Pass 0  IDiag  1:
 RMSU=  8.13D-05    CP:  9.98D-01  1.03D+00  4.40D-01
 E= -420.808897192111     Delta-E=       -0.000981987683 Rises=F Damp=F
 DIIS: error= 2.87D-04 at cycle   4 NSaved=   4.
 NSaved= 4 IEnMin= 4 EnMin= -420.808897192111     IErMin= 4 ErrMin= 2.87D-04
 ErrMax= 2.87D-04  0.00D+00 EMaxC= 1.00D-01 BMatC= 1.83D-05 BMatP= 3.95D-04
 IDIUse=3 WtCom= 9.97D-01 WtEn= 2.87D-03
 Coeff-Com: -0.186D-01 0.263D+00 0.111D+00 0.645D+00
 Coeff-En:   0.000D+00 0.000D+00 0.000D+00 0.100D+01
 Coeff:     -0.186D-01 0.262D+00 0.111D+00 0.646D+00
 Gap=     0.215 Goal=   None    Shift=    0.000
 RMSDP=3.92D-05 MaxDP=8.13D-04 DE=-9.82D-04 OVMax= 1.42D-03

 Cycle   5  Pass 0  IDiag  1:
 RMSU=  3.17D-05    CP:  9.98D-01  1.04D+00  3.95D-01  7.96D-01
 E= -420.808909817135     Delta-E=       -0.000012625025 Rises=F Damp=F
 DIIS: error= 1.20D-04 at cycle   5 NSaved=   5.
 NSaved= 5 IEnMin= 5 EnMin= -420.808909817135     IErMin= 5 ErrMin= 1.20D-04
 ErrMax= 1.20D-04  0.00D+00 EMaxC= 1.00D-01 BMatC= 3.42D-06 BMatP= 1.83D-05
 IDIUse=3 WtCom= 9.99D-01 WtEn= 1.20D-03
 Coeff-Com: -0.739D-02 0.852D-01 0.327D-01 0.353D+00 0.536D+00
 Coeff-En:   0.000D+00 0.000D+00 0.000D+00 0.958D-01 0.904D+00
 Coeff:     -0.738D-02 0.851D-01 0.326D-01 0.353D+00 0.537D+00
 Gap=     0.215 Goal=   None    Shift=    0.000
 RMSDP=1.33D-05 MaxDP=3.02D-04 DE=-1.26D-05 OVMax= 6.19D-04

 Cycle   6  Pass 0  IDiag  1:
 RMSU=  7.58D-06    CP:  9.98D-01  1.04D+00  4.05D-01  8.42D-01  6.92D-01
 E= -420.808912549416     Delta-E=       -0.000002732281 Rises=F Damp=F
 DIIS: error= 4.03D-05 at cycle   6 NSaved=   6.
 NSaved= 6 IEnMin= 6 EnMin= -420.808912549416     IErMin= 6 ErrMin= 4.03D-05
 ErrMax= 4.03D-05  0.00D+00 EMaxC= 1.00D-01 BMatC= 2.09D-07 BMatP= 3.42D-06
 IDIUse=1 WtCom= 1.00D+00 WtEn= 0.00D+00
 Coeff-Com: -0.178D-02 0.174D-01 0.678D-02 0.109D+00 0.256D+00 0.612D+00
 Coeff:     -0.178D-02 0.174D-01 0.678D-02 0.109D+00 0.256D+00 0.612D+00
 Gap=     0.215 Goal=   None    Shift=    0.000
 RMSDP=3.72D-06 MaxDP=8.29D-05 DE=-2.73D-06 OVMax= 1.77D-04

 Initial convergence to 1.0D-05 achieved.  Increase integral accuracy.
 Cycle   7  Pass 1  IDiag  1:
 E= -420.808900248636     Delta-E=        0.000012300780 Rises=F Damp=F
 DIIS: error= 1.38D-05 at cycle   1 NSaved=   1.
 NSaved= 1 IEnMin= 1 EnMin= -420.808900248636     IErMin= 1 ErrMin= 1.38D-05
 ErrMax= 1.38D-05  0.00D+00 EMaxC= 1.00D-01 BMatC= 4.17D-08 BMatP= 4.17D-08
 IDIUse=1 WtCom= 1.00D+00 WtEn= 0.00D+00
 Coeff-Com:  0.100D+01
 Coeff:      0.100D+01
 Gap=     0.215 Goal=   None    Shift=    0.000
 RMSDP=3.72D-06 MaxDP=8.29D-05 DE= 1.23D-05 OVMax= 1.99D-04

 Cycle   8  Pass 1  IDiag  1:
 RMSU=  5.54D-06    CP:  1.00D+00
 E= -420.808900191780     Delta-E=        0.000000056857 Rises=F Damp=F
 DIIS: error= 2.85D-05 at cycle   2 NSaved=   2.
 NSaved= 2 IEnMin= 1 EnMin= -420.808900248636     IErMin= 1 ErrMin= 1.38D-05
 ErrMax= 2.85D-05  0.00D+00 EMaxC= 1.00D-01 BMatC= 8.90D-08 BMatP= 4.17D-08
 IDIUse=1 WtCom= 1.00D+00 WtEn= 0.00D+00
 Coeff-Com:  0.605D+00 0.395D+00
 Coeff:      0.605D+00 0.395D+00
 Gap=     0.215 Goal=   None    Shift=    0.000
 RMSDP=2.39D-06 MaxDP=5.82D-05 DE= 5.69D-08 OVMax= 1.51D-04

 Cycle   9  Pass 1  IDiag  1:
 RMSU=  1.99D-06    CP:  1.00D+00  7.61D-01
 E= -420.808900284722     Delta-E=       -0.000000092943 Rises=F Damp=F
 DIIS: error= 5.11D-06 at cycle   3 NSaved=   3.
 NSaved= 3 IEnMin= 3 EnMin= -420.808900284722     IErMin= 3 ErrMin= 5.11D-06
 ErrMax= 5.11D-06  0.00D+00 EMaxC= 1.00D-01 BMatC= 2.89D-09 BMatP= 4.17D-08
 IDIUse=1 WtCom= 1.00D+00 WtEn= 0.00D+00
 Coeff-Com:  0.938D-01 0.167D+00 0.740D+00
 Coeff:      0.938D-01 0.167D+00 0.740D+00
 Gap=     0.215 Goal=   None    Shift=    0.000
 RMSDP=5.14D-07 MaxDP=8.38D-06 DE=-9.29D-08 OVMax= 2.97D-05

 Cycle  10  Pass 1  IDiag  1:
 RMSU=  3.31D-07    CP:  1.00D+00  7.99D-01  8.34D-01
 E= -420.808900287315     Delta-E=       -0.000000002592 Rises=F Damp=F
 DIIS: error= 1.74D-06 at cycle   4 NSaved=   4.
 NSaved= 4 IEnMin= 4 EnMin= -420.808900287315     IErMin= 4 ErrMin= 1.74D-06
 ErrMax= 1.74D-06  0.00D+00 EMaxC= 1.00D-01 BMatC= 5.53D-10 BMatP= 2.89D-09
 IDIUse=1 WtCom= 1.00D+00 WtEn= 0.00D+00
 Coeff-Com:  0.334D-02 0.598D-01 0.412D+00 0.525D+00
 Coeff:      0.334D-02 0.598D-01 0.412D+00 0.525D+00
 Gap=     0.215 Goal=   None    Shift=    0.000
 RMSDP=1.79D-07 MaxDP=4.15D-06 DE=-2.59D-09 OVMax= 7.96D-06

 Cycle  11  Pass 1  IDiag  1:
 RMSU=  7.32D-08    CP:  1.00D+00  8.00D-01  8.63D-01  5.40D-01
 E= -420.808900287811     Delta-E=       -0.000000000497 Rises=F Damp=F
 DIIS: error= 4.35D-07 at cycle   5 NSaved=   5.
 NSaved= 5 IEnMin= 5 EnMin= -420.808900287811     IErMin= 5 ErrMin= 4.35D-07
 ErrMax= 4.35D-07  0.00D+00 EMaxC= 1.00D-01 BMatC= 3.12D-11 BMatP= 5.53D-10
 IDIUse=1 WtCom= 1.00D+00 WtEn= 0.00D+00
 Coeff-Com: -0.195D-02 0.281D-01 0.210D+00 0.305D+00 0.458D+00
 Coeff:     -0.195D-02 0.281D-01 0.210D+00 0.305D+00 0.458D+00
 Gap=     0.215 Goal=   None    Shift=    0.000
 RMSDP=4.01D-08 MaxDP=9.51D-07 DE=-4.97D-10 OVMax= 1.93D-06

 Cycle  12  Pass 1  IDiag  1:
 RMSU=  2.39D-08    CP:  1.00D+00  7.99D-01  8.66D-01  5.61D-01  5.78D-01
 E= -420.808900287839     Delta-E=       -0.000000000028 Rises=F Damp=F
 DIIS: error= 1.37D-07 at cycle   6 NSaved=   6.
 NSaved= 6 IEnMin= 6 EnMin= -420.808900287839     IErMin= 6 ErrMin= 1.37D-07
 ErrMax= 1.37D-07  0.00D+00 EMaxC= 1.00D-01 BMatC= 2.13D-12 BMatP= 3.12D-11
 IDIUse=1 WtCom= 1.00D+00 WtEn= 0.00D+00
 Coeff-Com: -0.142D-02 0.114D-01 0.880D-01 0.136D+00 0.264D+00 0.503D+00
 Coeff:     -0.142D-02 0.114D-01 0.880D-01 0.136D+00 0.264D+00 0.503D+00
 Gap=     0.215 Goal=   None    Shift=    0.000
 RMSDP=1.26D-08 MaxDP=2.74D-07 DE=-2.75D-11 OVMax= 6.22D-07

 Cycle  13  Pass 1  IDiag  1:
 RMSU=  9.19D-09    CP:  1.00D+00  8.00D-01  8.65D-01  5.56D-01  6.23D-01
                    CP:  7.04D-01
 E= -420.808900287839     Delta-E=       -0.000000000001 Rises=F Damp=F
 DIIS: error= 4.12D-08 at cycle   7 NSaved=   7.
 NSaved= 7 IEnMin= 7 EnMin= -420.808900287839     IErMin= 7 ErrMin= 4.12D-08
 ErrMax= 4.12D-08  0.00D+00 EMaxC= 1.00D-01 BMatC= 3.04D-13 BMatP= 2.13D-12
 IDIUse=1 WtCom= 1.00D+00 WtEn= 0.00D+00
 Coeff-Com: -0.572D-03 0.329D-02 0.262D-01 0.435D-01 0.101D+00 0.307D+00
 Coeff-Com:  0.519D+00
 Coeff:     -0.572D-03 0.329D-02 0.262D-01 0.435D-01 0.101D+00 0.307D+00
 Coeff:      0.519D+00
 Gap=     0.215 Goal=   None    Shift=    0.000
 RMSDP=4.17D-09 MaxDP=1.50D-07 DE=-5.68D-13 OVMax= 1.70D-07

 SCF Done:  E(RB3LYP) =  -420.808900288     A.U. after   13 cycles
            NFock= 13  Conv=0.42D-08     -V/T= 2.0094
 KE= 4.169031694710D+02 PE=-1.787149055037D+03 EE= 5.461653831097D+02
 Leave Link  502 at Mon Sep 21 10:05:06 2026, MaxMem=  3758096384 cpu:              38.3 elap:               4.9
 (Enter /opt/software/gaussian/16RevA.03/g16/l701.exe)
 ... and contract with generalized density number  0.
 Compute integral first derivatives.
 Leave Link  701 at Mon Sep 21 10:05:06 2026, MaxMem=  3758096384 cpu:               0.6 elap:               0.1
 (Enter /opt/software/gaussian/16RevA.03/g16/l702.exe)
 L702 exits ... SP integral derivatives will be done elsewhere.
 Leave Link  702 at Mon Sep 21 10:05:06 2026, MaxMem=  3758096384 cpu:               0.1 elap:               0.0
 (Enter /opt/software/gaussian/16RevA.03/g16/l703.exe)
 Integral derivatives from FoFJK, PRISM(SPDF).
 Compute integral first derivatives, UseDBF=F ICtDFT=           0.
 Calling FoFJK, ICntrl=      2127 FMM=F ISym2X=0 I1Cent= 0 IOpClX= 0 NMat=1 NMatS=1 NMatT=0.
 FoFJK:  IHMeth= 1 ICntrl=    2127 DoSepK=F KAlg= 0 I1Cent=           0 FoldK=F
 IRaf=         0 NMat=       1 IRICut=       1 DoRegI=T DoRafI=F ISym2E= 0 IDoP0=0 IntGTp=1.
 FoFCou: FMM=F IPFlag=           0 FMFlag=      100000 FMFlg1=         800
         NFxFlg=           0 DoJE=F BraDBF=F KetDBF=F FulRan=T
         wScrn=  0.000000 ICntrl=      2127 IOpCl=  0 I1Cent=           0 NGrid=           0
         NMat0=    1 NMatS0=      1 NMatT0=    0 NMatD0=    1 NMtDS0=    0 NMtDT0=    0
 Symmetry not used in FoFCou.
 Leave Link  703 at Mon Sep 21 10:05:08 2026, MaxMem=  3758096384 cpu:               9.4 elap:               1.2
 (Enter /opt/software/gaussian/16RevA.03/g16/l716.exe)
 Dipole        =-1.47945863D+00 1.08377887D+00 1.44235092D-02
 ***** Axes restored to original set *****
 -------------------------------------------------------------------
 Center     Atomic                   Forces (Hartrees/Bohr)
 Number     Number              X              Y              Z
 -------------------------------------------------------------------
      1        6          -0.004584219   -0.000015887    0.000243733
      2        6           0.000805809   -0.000038065   -0.000048591
      3        6          -0.000921634    0.000549577    0.000088849
      4        1          -0.000049398    0.000015005    0.000011617
      5        6           0.007873336   -0.001475106   -0.000722195
      6        6          -0.000773019   -0.000192488    0.000063241
      7        1           0.001168966    0.000015464   -0.000086518
      8        6          -0.017036066   -0.003323285    0.002145668
      9        6           0.001685692    0.002937578   -0.000225423
     10        1           0.000214162    0.000335000   -0.000031410
     11        1          -0.000174864    0.000024613    0.000012308
     12        1           0.000636268    0.003387145   -0.000202436
     13        8           0.006057244   -0.000989940   -0.000700113
     14        1          -0.002743761   -0.003899921    0.000292902
     15        8           0.007841483    0.002670311   -0.000841631
 -------------------------------------------------------------------
 Cartesian Forces:  Max     0.017036066 RMS     0.003494146
 Leave Link  716 at Mon Sep 21 10:05:08 2026, MaxMem=  3758096384 cpu:               0.2 elap:               0.0
 (Enter /opt/software/gaussian/16RevA.03/g16/l103.exe)

 GradGradGradGradGradGradGradGradGradGradGradGradGradGradGradGradGradGrad
 Berny optimization.
 Using GEDIIS/GDIIS optimizer.
 FormGI is forming the generalized inverse of G from B-inverse, IUseBI=4.
 Internal  Forces:  Max     0.011518710 RMS     0.003003819
 Search for a local minimum.
 Step number   2 out of a maximum of   77
 All quantities printed in internal units (Hartrees-Bohrs-Radians)
 RMS Force = .30038D-02 SwitMx=.10000D-02 MixMth= 1
 Mixed Optimization -- RFO/linear search
 Update second derivatives using D2CorX and points    1    2
 DE= -3.20D-03 DEPred=-5.37D-03 R= 5.96D-01
 TightC=F SS=  1.41D+00  RLast= 1.92D-01 DXNew= 5.0454D-01 5.7579D-01
 Trust test= 5.96D-01 RLast= 1.92D-01 DXMaxT set to 5.05D-01
 ITU=  1  0
 Use linear search instead of GDIIS.
     Eigenvalues ---    0.00688   0.01421   0.01641   0.02086   0.02109
     Eigenvalues ---    0.02135   0.02156   0.02177   0.02182   0.02186
     Eigenvalues ---    0.02193   0.02918   0.15692   0.16000   0.16000
     Eigenvalues ---    0.16000   0.16000   0.17170   0.21997   0.22001
     Eigenvalues ---    0.23441   0.24712   0.25000   0.30391   0.35055
     Eigenvalues ---    0.35095   0.35105   0.35108   0.35212   0.37065
     Eigenvalues ---    0.42128   0.42515   0.46081   0.46620   0.46766
     Eigenvalues ---    0.47129   0.53368   0.57416   0.98158
 RFO step:  Lambda=-8.31094142D-04 EMin= 6.88263902D-03
 Quartic linear search produced a step of -0.26683.
 Iteration  1 RMS(Cart)=  0.03447576 RMS(Int)=  0.00068818
 Iteration  2 RMS(Cart)=  0.00081544 RMS(Int)=  0.00002211
 Iteration  3 RMS(Cart)=  0.00000069 RMS(Int)=  0.00002211
 ITry= 1 IFail=0 DXMaxC= 1.67D-01 DCOld= 1.00D+10 DXMaxT= 5.05D-01 DXLimC= 3.00D+00 Rises=F
 Variable       Old X    -DE/DX   Delta X   Delta X   Delta X     New X
                                 (Linear)    (Quad)   (Total)
    R1        2.63271  -0.00049   0.00032  -0.00100  -0.00067   2.63203
    R2        2.64419   0.00217   0.00006   0.00335   0.00341   2.64760
    R3        2.05042  -0.00057   0.00130  -0.00274  -0.00144   2.04898
    R4        2.05269   0.00005   0.00061  -0.00062  -0.00001   2.05268
    R5        2.63853   0.00036  -0.00211   0.00335   0.00124   2.63976
    R6        2.63621   0.00144  -0.00140   0.00401   0.00261   2.63882
    R7        2.63409   0.00032   0.00018   0.00013   0.00031   2.63440
    R8        2.05307  -0.00018   0.00052  -0.00099  -0.00047   2.05260
    R9        2.86542  -0.00752  -0.00526  -0.01109  -0.01635   2.84907
   R10        2.66157  -0.00613  -0.00302  -0.00645  -0.00947   2.65210
   R11        2.05325   0.00006   0.00050  -0.00047   0.00004   2.05329
   R12        2.29227  -0.00429   0.00056  -0.00391  -0.00335   2.28892
   R13        2.54280   0.00499  -0.01930   0.02970   0.01040   2.55320
   R14        2.05736   0.00049  -0.00114   0.00237   0.00123   2.05859
   R15        1.82987   0.00208   0.00119   0.00139   0.00258   1.83245
    A1        2.11072  -0.00180  -0.00101  -0.00442  -0.00543   2.10529
    A2        2.10396   0.00195  -0.00673   0.01462   0.00788   2.11184
    A3        2.06851  -0.00015   0.00775  -0.01020  -0.00246   2.06605
    A4        2.08915   0.00022   0.00118  -0.00103   0.00015   2.08929
    A5        2.09668  -0.00048  -0.00031  -0.00024  -0.00054   2.09613
    A6        2.09736   0.00025  -0.00087   0.00127   0.00040   2.09776
    A7        2.09435   0.00022   0.00086  -0.00026   0.00060   2.09496
    A8        2.09741   0.00026  -0.00140   0.00282   0.00142   2.09883
    A9        2.09142  -0.00047   0.00053  -0.00256  -0.00202   2.08940
   A10        2.02492   0.00514   0.01495  -0.00194   0.01301   2.03793
   A11        2.06565   0.00324   0.00171   0.00720   0.00892   2.07457
   A12        2.19261  -0.00839  -0.01666  -0.00526  -0.02192   2.17069
   A13        2.08994   0.00003   0.00034   0.00052   0.00085   2.09079
   A14        2.09938  -0.00019  -0.00096  -0.00020  -0.00115   2.09822
   A15        2.09387   0.00015   0.00062  -0.00032   0.00030   2.09417
   A16        2.10446   0.01085   0.01282   0.01705   0.02982   2.13428
   A17        2.09373  -0.01152  -0.01944  -0.01136  -0.03085   2.06288
   A18        2.08499   0.00067   0.00663  -0.00562   0.00096   2.08595
   A19        2.10903  -0.00121  -0.00159  -0.00281  -0.00440   2.10464
   A20        2.03540   0.00412   0.00845   0.00936   0.01782   2.05322
   A21        2.13875  -0.00291  -0.00686  -0.00656  -0.01342   2.12533
   A22        1.98238  -0.00787  -0.02934  -0.00497  -0.03430   1.94808
    D1       -3.14081  -0.00002   0.00019  -0.00049  -0.00030  -3.14112
    D2        0.00075  -0.00001   0.00011  -0.00042  -0.00031   0.00044
    D3        0.00010   0.00000  -0.00000   0.00015   0.00015   0.00025
    D4       -3.14152   0.00001  -0.00008   0.00022   0.00014  -3.14138
    D5        3.14066   0.00002  -0.00033   0.00048   0.00014   3.14080
    D6       -0.00170   0.00003  -0.00006   0.00113   0.00107  -0.00063
    D7       -0.00027   0.00000  -0.00014  -0.00016  -0.00030  -0.00057
    D8        3.14056   0.00001   0.00013   0.00049   0.00063   3.14118
    D9        0.00046  -0.00001  -0.00001  -0.00022  -0.00022   0.00024
   D10       -3.14157  -0.00000   0.00006   0.00006   0.00012  -3.14145
   D11       -3.14116  -0.00000  -0.00008  -0.00015  -0.00023  -3.14139
   D12       -0.00001   0.00000  -0.00002   0.00014   0.00012   0.00011
   D13       -0.00068   0.00000  -0.00015   0.00011  -0.00004  -0.00072
   D14        3.14135  -0.00000  -0.00021  -0.00017  -0.00038   3.14097
   D15        3.14026   0.00001   0.00008   0.00054   0.00062   3.14088
   D16       -0.00090   0.00001   0.00002   0.00025   0.00027  -0.00062
   D17       -0.00031   0.00002   0.00020   0.00063   0.00083   0.00052
   D18        3.13915   0.00001   0.00053   0.00085   0.00138   3.14053
   D19       -3.14125   0.00001  -0.00003   0.00021   0.00017  -3.14107
   D20       -0.00179   0.00000   0.00030   0.00043   0.00073  -0.00106
   D21        0.01293  -0.00011  -0.00233  -0.01254  -0.01492  -0.00199
   D22       -3.13305   0.00015  -0.00036   0.00340   0.00308  -3.12997
   D23       -3.12783  -0.00012  -0.00262  -0.01326  -0.01592   3.13944
   D24        0.00937   0.00014  -0.00065   0.00269   0.00208   0.01146
   D25        0.00148  -0.00003  -0.00009  -0.00124  -0.00133   0.00015
   D26       -3.13785  -0.00004  -0.00046  -0.00149  -0.00195  -3.13980
   D27       -3.14096  -0.00002   0.00020  -0.00051  -0.00031  -3.14127
   D28        0.00289  -0.00003  -0.00016  -0.00076  -0.00093   0.00197
   D29        0.00973  -0.00013  -0.00134  -0.00766  -0.00890   0.00083
   D30       -3.13620   0.00015   0.00059   0.00816   0.00866  -3.12754
         Item               Value     Threshold  Converged?
 Maximum Force            0.011519     0.000450     NO 
 RMS     Force            0.003004     0.000300     NO 
 Maximum Displacement     0.167118     0.001800     NO 
 RMS     Displacement     0.034806     0.001200     NO 
 Predicted change in Energy=-7.553330D-04
 Lowest energy point so far.  Saving SCF results.
 GradGradGradGradGradGradGradGradGradGradGradGradGradGradGradGradGradGrad

 Leave Link  103 at Mon Sep 21 10:05:08 2026, MaxMem=  3758096384 cpu:               0.7 elap:               0.1
 (Enter /opt/software/gaussian/16RevA.03/g16/l202.exe)
                          Input orientation:                          
 ---------------------------------------------------------------------
 Center     Atomic      Atomic             Coordinates (Angstroms)
 Number     Number       Type             X           Y           Z
 ---------------------------------------------------------------------
      1          6           0       -0.842273    2.006567    0.026149
      2          6           0       -1.511552    0.788269    0.114131
      3          6           0        0.600003   -0.380612   -0.007480
      4          1           0       -2.594618    0.773728    0.195694
      5          6           0        0.554124    2.047699   -0.080282
      6          6           0       -0.792165   -0.409038    0.097418
      7          1           0       -1.386031    2.944562    0.037955
      8          6           0        1.188200    3.412517   -0.171196
      9          6           0        1.268247    0.839644   -0.096022
     10          1           0        1.166866   -1.307059   -0.020503
     11          1           0       -1.312305   -1.360552    0.165803
     12          1           0        2.354462    0.816408   -0.175405
     13          8           0        0.534299    4.431980   -0.156261
     14          1           0        2.938045    2.604851   -0.300658
     15          8           0        2.532208    3.485446   -0.288576
 ---------------------------------------------------------------------
                    Distance matrix (angstroms):
                    1          2          3          4          5
     1  C    0.000000
     2  C    1.392812   0.000000
     3  C    2.789250   2.416555   0.000000
     4  H    2.149267   1.086230   3.402849   0.000000
     5  C    1.401052   2.427134   2.429836   3.407894   0.000000
     6  C    2.417175   1.396903   1.396404   2.158107   2.807068
     7  H    1.084272   2.161286   3.873393   2.489595   2.140688
     8  C    2.477592   3.775811   3.841953   4.626827   1.507662
     9  C    2.414732   2.788205   1.394064   3.874425   1.403430
    10  H    3.875427   3.403300   1.086189   4.304089   3.410781
    11  H    3.402635   2.158657   2.155744   2.490055   3.893622
    12  H    3.417047   3.876943   2.130536   4.963157   2.183195
    13  O    2.794790   4.187511   4.815339   4.826676   2.385573
    14  H    3.841296   4.823996   3.803339   5.848909   2.458061
    15  O    3.697737   4.877390   4.331147   5.819989   2.454244
                    6          7          8          9         10
     6  C    0.000000
     7  H    3.406294   0.000000
     8  C    4.312572   2.624764   0.000000
     9  C    2.417007   3.390254   2.575215   0.000000
    10  H    2.158275   4.959534   4.722029   2.150422   0.000000
    11  H    1.086555   4.307643   5.398915   3.401274   2.486737
    12  H    3.387833   4.308810   2.846043   1.089359   2.437928
    13  O    5.025864   2.436759   1.211245   3.667040   5.775391
    14  H    4.812116   4.350597   1.931591   2.438454   4.303324
    15  O    5.134925   3.968850   1.351094   2.938527   4.990404
                   11         12         13         14         15
    11  H    0.000000
    12  H    4.277938   0.000000
    13  O    6.088275   4.047927   0.000000
    14  H    5.831594   1.885414   3.022788   0.000000
    15  O    6.202454   2.677343   2.214740   0.969690   0.000000
 Stoichiometry    C7H6O2
 Framework group  C1[X(C7H6O2)]
 Deg. of freedom    39
 Full point group                 C1      NOp   1
 RotChk:  IX=0 Diff= 4.48D-03
 Largest Abelian subgroup         C1      NOp   1
 Largest concise Abelian subgroup C1      NOp   1
                         Standard orientation:                         
 ---------------------------------------------------------------------
 Center     Atomic      Atomic             Coordinates (Angstroms)
 Number     Number       Type             X           Y           Z
 ---------------------------------------------------------------------
      1          6           0       -0.485723   -1.207740    0.000050
      2          6           0       -1.878498   -1.197983    0.002877
      3          6           0       -1.861670    1.218509   -0.001631
      4          1           0       -2.423399   -2.137649    0.005651
      5          6           0        0.236404   -0.007128   -0.002975
      6          6           0       -2.570568    0.015432    0.002189
      7          1           0        0.066188   -2.141035    0.000341
      8          6           0        1.739898   -0.119141   -0.004835
      9          6           0       -0.467656    1.206921   -0.003883
     10          1           0       -2.392200    2.166318   -0.002862
     11          1           0       -3.657076    0.025315    0.004527
     12          1           0        0.045722    2.167718   -0.007869
     13          8           0        2.308999   -1.188359   -0.001758
     14          1           0        1.895979    1.806033    0.014879
     15          8           0        2.464959    1.020869    0.006081
 ---------------------------------------------------------------------
 Rotational constants (GHZ):           3.8469759           1.2129859           0.9222119
 Leave Link  202 at Mon Sep 21 10:05:08 2026, MaxMem=  3758096384 cpu:               0.3 elap:               0.1
 (Enter /opt/software/gaussian/16RevA.03/g16/l301.exe)
 Standard basis: 6-31G(d) (6D, 7F)
 Ernie: Thresh=  0.10000D-02 Tol=  0.10000D-05 Strict=F.
 There are   147 symmetry adapted cartesian basis functions of A   symmetry.
 There are   147 symmetry adapted basis functions of A   symmetry.
   147 basis functions,   276 primitive gaussians,   147 cartesian basis functions
    32 alpha electrons       32 beta electrons
       nuclear repulsion energy       403.9010501208 Hartrees.
 IExCor=  402 DFT=T Ex+Corr=B3LYP ExCW=0 ScaHFX=  0.200000
 ScaDFX=  0.800000  0.720000  1.000000  0.810000 ScalE2=  1.000000  1.000000
 IRadAn=      5 IRanWt=     -1 IRanGd=            0 ICorTp=0 IEmpDi=  4
 NAtoms=   15 NActive=   15 NUniq=   15 SFac= 1.00D+00 NAtFMM=   60 NAOKFM=F Big=F
 Integral buffers will be    131072 words long.
 Raffenetti 2 integral format.
 Two-electron integral symmetry is turned on.
 Leave Link  301 at Mon Sep 21 10:05:08 2026, MaxMem=  3758096384 cpu:               0.5 elap:               0.1
 (Enter /opt/software/gaussian/16RevA.03/g16/l302.exe)
 NPDir=0 NMtPBC=     1 NCelOv=     1 NCel=       1 NClECP=     1 NCelD=      1
         NCelK=      1 NCelE2=     1 NClLst=     1 CellRange=     0.0.
 One-electron integrals computed using PRISM.
 One-electron integral symmetry used in STVInt
 NBasis=   147 RedAO= T EigKep=  4.68D-04  NBF=   147
 NBsUse=   147 1.00D-06 EigRej= -1.00D+00 NBFU=   147
 Precomputing XC quadrature grid using
 IXCGrd= 4 IRadAn=           5 IRanWt=          -1 IRanGd=           0 AccXCQ= 0.00D+00.
 Generated NRdTot=       0 NPtTot=           0 NUsed=           0 NTot=          32
 NSgBfM=   147   147   147   147   147 MxSgAt=    15 MxSgA2=    15.
 Leave Link  302 at Mon Sep 21 10:05:08 2026, MaxMem=  3758096384 cpu:               1.0 elap:               0.2
 (Enter /opt/software/gaussian/16RevA.03/g16/l303.exe)
 DipDrv:  MaxL=1.
 Leave Link  303 at Mon Sep 21 10:05:08 2026, MaxMem=  3758096384 cpu:               0.2 elap:               0.0
 (Enter /opt/software/gaussian/16RevA.03/g16/l401.exe)
 Initial guess from the checkpoint file:  "job.chk"
 B after Tr=    -0.000000   -0.000000   -0.000000
         Rot=    1.000000    0.000016    0.000034   -0.000311 Ang=   0.04 deg.
 Guess basis will be translated and rotated to current coordinates.
 JPrj=2 DoOrth=T DoCkMO=T.
 Generating alternative initial guess.
 ExpMin= 1.61D-01 ExpMax= 5.48D+03 ExpMxC= 8.25D+02 IAcc=2 IRadAn=         4 AccDes= 0.00D+00
 Harris functional with IExCor=  402 and IRadAn=       4 diagonalized for initial guess.
 HarFok:  IExCor=  402 AccDes= 0.00D+00 IRadAn=         4 IDoV= 1 UseB2=F ITyADJ=14
 ICtDFT=  3500011 ScaDFX=  1.000000  1.000000  1.000000  1.000000
 FoFCou: FMM=F IPFlag=           0 FMFlag=      100000 FMFlg1=           0
         NFxFlg=           0 DoJE=T BraDBF=F KetDBF=T FulRan=T
         wScrn=  0.000000 ICntrl=       500 IOpCl=  0 I1Cent=   200000004 NGrid=           0
         NMat0=    1 NMatS0=      1 NMatT0=    0 NMatD0=    1 NMtDS0=    0 NMtDT0=    0
 Petite list used in FoFCou.
 Harris En= -420.838728128462    
 Leave Link  401 at Mon Sep 21 10:05:09 2026, MaxMem=  3758096384 cpu:               2.4 elap:               0.3
 (Enter /opt/software/gaussian/16RevA.03/g16/l502.exe)
 Integral symmetry usage will be decided dynamically.
 Closed shell SCF:
 Using DIIS extrapolation, IDIIS=  1040.
 NGot=  3758096384 LenX=  3758050306 LenY=  3758028256
 Requested convergence on RMS density matrix=1.00D-08 within 128 cycles.
 Requested convergence on MAX density matrix=1.00D-06.
 Requested convergence on             energy=1.00D-06.
 No special actions if energy rises.
 Fock matrices will be formed incrementally for  20 cycles.
 Integral accuracy reduced to 1.0D-05 until final iterations.

 Cycle   1  Pass 0  IDiag  1:
 FoFJK:  IHMeth= 1 ICntrl=       0 DoSepK=F KAlg= 0 I1Cent=           0 FoldK=F
 IRaf= 940000000 NMat=       1 IRICut=       1 DoRegI=T DoRafI=F ISym2E= 0 IDoP0=0 IntGTp=1.
 FoFCou: FMM=F IPFlag=           0 FMFlag=      100000 FMFlg1=           0
         NFxFlg=           0 DoJE=F BraDBF=F KetDBF=F FulRan=T
         wScrn=  0.000000 ICntrl=         0 IOpCl=  0 I1Cent=           0 NGrid=           0
         NMat0=    1 NMatS0=      1 NMatT0=    0 NMatD0=    1 NMtDS0=    0 NMtDT0=    0
 Symmetry not used in FoFCou.
 E= -420.807812609719    
 DIIS: error= 2.20D-03 at cycle   1 NSaved=   1.
 NSaved= 1 IEnMin= 1 EnMin= -420.807812609719     IErMin= 1 ErrMin= 2.20D-03
 ErrMax= 2.20D-03  0.00D+00 EMaxC= 1.00D-01 BMatC= 1.37D-03 BMatP= 1.37D-03
 IDIUse=3 WtCom= 9.78D-01 WtEn= 2.20D-02
 Coeff-Com:  0.100D+01
 Coeff-En:   0.100D+01
 Coeff:      0.100D+01
 Gap=     1.913 Goal=   None    Shift=    0.000
 GapD=    1.913 DampG=2.000 DampE=1.000 DampFc=2.0000 IDamp=-1.
 RMSDP=4.45D-04 MaxDP=9.38D-03              OVMax= 9.98D-03

 Cycle   2  Pass 0  IDiag  1:
 RMSU=  4.45D-04    CP:  1.00D+00
 E= -420.809815681084     Delta-E=       -0.002003071366 Rises=F Damp=F
 DIIS: error= 4.58D-04 at cycle   2 NSaved=   2.
 NSaved= 2 IEnMin= 2 EnMin= -420.809815681084     IErMin= 2 ErrMin= 4.58D-04
 ErrMax= 4.58D-04  0.00D+00 EMaxC= 1.00D-01 BMatC= 3.99D-05 BMatP= 1.37D-03
 IDIUse=3 WtCom= 9.95D-01 WtEn= 4.58D-03
 Coeff-Com: -0.185D-01 0.102D+01
 Coeff-En:   0.000D+00 0.100D+01
 Coeff:     -0.184D-01 0.102D+01
 Gap=     0.216 Goal=   None    Shift=    0.000
 RMSDP=1.12D-04 MaxDP=1.91D-03 DE=-2.00D-03 OVMax= 5.47D-03

 Cycle   3  Pass 0  IDiag  1:
 RMSU=  1.11D-04    CP:  1.00D+00  9.93D-01
 E= -420.809759212688     Delta-E=        0.000056468397 Rises=F Damp=F
 DIIS: error= 9.69D-04 at cycle   3 NSaved=   3.
 NSaved= 3 IEnMin= 2 EnMin= -420.809815681084     IErMin= 2 ErrMin= 4.58D-04
 ErrMax= 9.69D-04  0.00D+00 EMaxC= 1.00D-01 BMatC= 1.00D-04 BMatP= 3.99D-05
 IDIUse=3 WtCom= 2.43D-01 WtEn= 7.57D-01
 Coeff-Com: -0.388D-01 0.652D+00 0.387D+00
 Coeff-En:   0.000D+00 0.692D+00 0.308D+00
 Coeff:     -0.944D-02 0.682D+00 0.327D+00
 Gap=     0.215 Goal=   None    Shift=    0.000
 RMSDP=6.57D-05 MaxDP=1.29D-03 DE= 5.65D-05 OVMax= 3.53D-03

 Cycle   4  Pass 0  IDiag  1:
 RMSU=  2.02D-05    CP:  1.00D+00  1.03D+00  4.54D-01
 E= -420.809857577224     Delta-E=       -0.000098364536 Rises=F Damp=F
 DIIS: error= 7.00D-05 at cycle   4 NSaved=   4.
 NSaved= 4 IEnMin= 4 EnMin= -420.809857577224     IErMin= 4 ErrMin= 7.00D-05
 ErrMax= 7.00D-05  0.00D+00 EMaxC= 1.00D-01 BMatC= 7.32D-07 BMatP= 3.99D-05
 IDIUse=1 WtCom= 1.00D+00 WtEn= 0.00D+00
 Coeff-Com: -0.143D-01 0.178D+00 0.719D-01 0.764D+00
 Coeff:     -0.143D-01 0.178D+00 0.719D-01 0.764D+00
 Gap=     0.215 Goal=   None    Shift=    0.000
 RMSDP=8.86D-06 MaxDP=1.92D-04 DE=-9.84D-05 OVMax= 2.41D-04

 Initial convergence to 1.0D-05 achieved.  Increase integral accuracy.
 Cycle   5  Pass 1  IDiag  1:
 E= -420.809852506753     Delta-E=        0.000005070471 Rises=F Damp=F
 DIIS: error= 4.08D-05 at cycle   1 NSaved=   1.
 NSaved= 1 IEnMin= 1 EnMin= -420.809852506753     IErMin= 1 ErrMin= 4.08D-05
 ErrMax= 4.08D-05  0.00D+00 EMaxC= 1.00D-01 BMatC= 3.13D-07 BMatP= 3.13D-07
 IDIUse=1 WtCom= 1.00D+00 WtEn= 0.00D+00
 Coeff-Com:  0.100D+01
 Coeff:      0.100D+01
 Gap=     0.215 Goal=   None    Shift=    0.000
 RMSDP=8.86D-06 MaxDP=1.92D-04 DE= 5.07D-06 OVMax= 4.54D-04

 Cycle   6  Pass 1  IDiag  1:
 RMSU=  1.09D-05    CP:  1.00D+00
 E= -420.809851830172     Delta-E=        0.000000676582 Rises=F Damp=F
 DIIS: error= 8.25D-05 at cycle   2 NSaved=   2.
 NSaved= 2 IEnMin= 1 EnMin= -420.809852506753     IErMin= 1 ErrMin= 4.08D-05
 ErrMax= 8.25D-05  0.00D+00 EMaxC= 1.00D-01 BMatC= 1.06D-06 BMatP= 3.13D-07
 IDIUse=1 WtCom= 1.00D+00 WtEn= 0.00D+00
 Coeff-Com:  0.651D+00 0.349D+00
 Coeff:      0.651D+00 0.349D+00
 Gap=     0.215 Goal=   None    Shift=    0.000
 RMSDP=6.65D-06 MaxDP=1.52D-04 DE= 6.77D-07 OVMax= 3.30D-04

 Cycle   7  Pass 1  IDiag  1:
 RMSU=  3.26D-06    CP:  1.00D+00  4.70D-01
 E= -420.809852773368     Delta-E=       -0.000000943196 Rises=F Damp=F
 DIIS: error= 1.39D-05 at cycle   3 NSaved=   3.
 NSaved= 3 IEnMin= 3 EnMin= -420.809852773368     IErMin= 3 ErrMin= 1.39D-05
 ErrMax= 1.39D-05  0.00D+00 EMaxC= 1.00D-01 BMatC= 1.88D-08 BMatP= 3.13D-07
 IDIUse=1 WtCom= 1.00D+00 WtEn= 0.00D+00
 Coeff-Com:  0.358D+00 0.209D+00 0.433D+00
 Coeff:      0.358D+00 0.209D+00 0.433D+00
 Gap=     0.215 Goal=   None    Shift=    0.000
 RMSDP=9.85D-07 MaxDP=3.45D-05 DE=-9.43D-07 OVMax= 4.18D-05

 Cycle   8  Pass 1  IDiag  1:
 RMSU=  8.35D-07    CP:  1.00D+00  4.92D-01  8.61D-01
 E= -420.809852787626     Delta-E=       -0.000000014258 Rises=F Damp=F
 DIIS: error= 2.96D-06 at cycle   4 NSaved=   4.
 NSaved= 4 IEnMin= 4 EnMin= -420.809852787626     IErMin= 4 ErrMin= 2.96D-06
 ErrMax= 2.96D-06  0.00D+00 EMaxC= 1.00D-01 BMatC= 1.35D-09 BMatP= 1.88D-08
 IDIUse=1 WtCom= 1.00D+00 WtEn= 0.00D+00
 Coeff-Com:  0.235D-01 0.216D-01 0.219D+00 0.736D+00
 Coeff:      0.235D-01 0.216D-01 0.219D+00 0.736D+00
 Gap=     0.215 Goal=   None    Shift=    0.000
 RMSDP=2.85D-07 MaxDP=9.00D-06 DE=-1.43D-08 OVMax= 1.39D-05

 Cycle   9  Pass 1  IDiag  1:
 RMSU=  1.81D-07    CP:  1.00D+00  4.96D-01  8.87D-01  7.62D-01
 E= -420.809852788490     Delta-E=       -0.000000000864 Rises=F Damp=F
 DIIS: error= 1.47D-06 at cycle   5 NSaved=   5.
 NSaved= 5 IEnMin= 5 EnMin= -420.809852788490     IErMin= 5 ErrMin= 1.47D-06
 ErrMax= 1.47D-06  0.00D+00 EMaxC= 1.00D-01 BMatC= 2.00D-10 BMatP= 1.35D-09
 IDIUse=1 WtCom= 1.00D+00 WtEn= 0.00D+00
 Coeff-Com: -0.186D-02 0.378D-02 0.117D+00 0.448D+00 0.433D+00
 Coeff:     -0.186D-02 0.378D-02 0.117D+00 0.448D+00 0.433D+00
 Gap=     0.215 Goal=   None    Shift=    0.000
 RMSDP=1.18D-07 MaxDP=2.53D-06 DE=-8.64D-10 OVMax= 7.13D-06

 Cycle  10  Pass 1  IDiag  1:
 RMSU=  5.48D-08    CP:  1.00D+00  4.94D-01  8.92D-01  7.94D-01  4.65D-01
 E= -420.809852788692     Delta-E=       -0.000000000201 Rises=F Damp=F
 DIIS: error= 2.72D-07 at cycle   6 NSaved=   6.
 NSaved= 6 IEnMin= 6 EnMin= -420.809852788692     IErMin= 6 ErrMin= 2.72D-07
 ErrMax= 2.72D-07  0.00D+00 EMaxC= 1.00D-01 BMatC= 1.09D-11 BMatP= 2.00D-10
 IDIUse=1 WtCom= 1.00D+00 WtEn= 0.00D+00
 Coeff-Com: -0.285D-02 0.486D-03 0.513D-01 0.199D+00 0.252D+00 0.500D+00
 Coeff:     -0.285D-02 0.486D-03 0.513D-01 0.199D+00 0.252D+00 0.500D+00
 Gap=     0.215 Goal=   None    Shift=    0.000
 RMSDP=2.53D-08 MaxDP=5.34D-07 DE=-2.01D-10 OVMax= 1.31D-06

 Cycle  11  Pass 1  IDiag  1:
 RMSU=  1.73D-08    CP:  1.00D+00  4.95D-01  8.92D-01  7.90D-01  5.11D-01
                    CP:  7.24D-01
 E= -420.809852788701     Delta-E=       -0.000000000009 Rises=F Damp=F
 DIIS: error= 6.07D-08 at cycle   7 NSaved=   7.
 NSaved= 7 IEnMin= 7 EnMin= -420.809852788701     IErMin= 7 ErrMin= 6.07D-08
 ErrMax= 6.07D-08  0.00D+00 EMaxC= 1.00D-01 BMatC= 5.43D-13 BMatP= 1.09D-11
 IDIUse=1 WtCom= 1.00D+00 WtEn= 0.00D+00
 Coeff-Com: -0.114D-02-0.250D-03 0.959D-02 0.365D-01 0.652D-01 0.215D+00
 Coeff-Com:  0.675D+00
 Coeff:     -0.114D-02-0.250D-03 0.959D-02 0.365D-01 0.652D-01 0.215D+00
 Coeff:      0.675D+00
 Gap=     0.215 Goal=   None    Shift=    0.000
 RMSDP=6.63D-09 MaxDP=1.65D-07 DE=-9.44D-12 OVMax= 2.54D-07

 SCF Done:  E(RB3LYP) =  -420.809852789     A.U. after   11 cycles
            NFock= 11  Conv=0.66D-08     -V/T= 2.0093
 KE= 4.169221381595D+02 PE=-1.788364259428D+03 EE= 5.467312183586D+02
 Leave Link  502 at Mon Sep 21 10:05:13 2026, MaxMem=  3758096384 cpu:              34.7 elap:               4.5
 (Enter /opt/software/gaussian/16RevA.03/g16/l701.exe)
 ... and contract with generalized density number  0.
 Compute integral first derivatives.
 Leave Link  701 at Mon Sep 21 10:05:13 2026, MaxMem=  3758096384 cpu:               0.6 elap:               0.1
 (Enter /opt/software/gaussian/16RevA.03/g16/l702.exe)
 L702 exits ... SP integral derivatives will be done elsewhere.
 Leave Link  702 at Mon Sep 21 10:05:13 2026, MaxMem=  3758096384 cpu:               0.2 elap:               0.0
 (Enter /opt/software/gaussian/16RevA.03/g16/l703.exe)
 Integral derivatives from FoFJK, PRISM(SPDF).
 Compute integral first derivatives, UseDBF=F ICtDFT=           0.
 Calling FoFJK, ICntrl=      2127 FMM=F ISym2X=0 I1Cent= 0 IOpClX= 0 NMat=1 NMatS=1 NMatT=0.
 FoFJK:  IHMeth= 1 ICntrl=    2127 DoSepK=F KAlg= 0 I1Cent=           0 FoldK=F
 IRaf=         0 NMat=       1 IRICut=       1 DoRegI=T DoRafI=F ISym2E= 0 IDoP0=0 IntGTp=1.
 FoFCou: FMM=F IPFlag=           0 FMFlag=      100000 FMFlg1=         800
         NFxFlg=           0 DoJE=F BraDBF=F KetDBF=F FulRan=T
         wScrn=  0.000000 ICntrl=      2127 IOpCl=  0 I1Cent=           0 NGrid=           0
         NMat0=    1 NMatS0=      1 NMatT0=    0 NMatD0=    1 NMtDS0=    0 NMtDT0=    0
 Symmetry not used in FoFCou.
 Leave Link  703 at Mon Sep 21 10:05:15 2026, MaxMem=  3758096384 cpu:               9.4 elap:               1.2
 (Enter /opt/software/gaussian/16RevA.03/g16/l716.exe)
 Dipole        =-1.57632274D+00 1.01937358D+00 3.42627764D-03
 ***** Axes restored to original set *****
 -------------------------------------------------------------------
 Center     Atomic                   Forces (Hartrees/Bohr)
 Number     Number              X              Y              Z
 -------------------------------------------------------------------
      1        6          -0.001607124   -0.000559190    0.000159962
      2        6           0.000494934    0.000294869   -0.000067313
      3        6          -0.000534896   -0.000154825   -0.000014793
      4        1          -0.000061477   -0.000128621    0.000009685
      5        6           0.002582981    0.000607447    0.000198792
      6        6           0.000473770    0.000262970   -0.000034891
      7        1           0.000395393    0.000431479   -0.000048421
      8        6          -0.008607306   -0.000461858   -0.001077988
      9        6           0.000387659    0.000547345    0.000059340
     10        1          -0.000038419   -0.000043494   -0.000010286
     11        1           0.000019662    0.000035988    0.000013940
     12        1          -0.000329620    0.000197027    0.000061554
     13        8           0.002385030   -0.001643019    0.000649422
     14        1          -0.000614150   -0.000255574    0.000154434
     15        8           0.005053562    0.000869456   -0.000053438
 -------------------------------------------------------------------
 Cartesian Forces:  Max     0.008607306 RMS     0.001652961
 Leave Link  716 at Mon Sep 21 10:05:15 2026, MaxMem=  3758096384 cpu:               0.2 elap:               0.0
 (Enter /opt/software/gaussian/16RevA.03/g16/l103.exe)

 GradGradGradGradGradGradGradGradGradGradGradGradGradGradGradGradGradGrad
 Berny optimization.
 Using GEDIIS/GDIIS optimizer.
 FormGI is forming the generalized inverse of G from B-inverse, IUseBI=4.
 Internal  Forces:  Max     0.004440773 RMS     0.000784343
 Search for a local minimum.
 Step number   3 out of a maximum of   77
 All quantities printed in internal units (Hartrees-Bohrs-Radians)
 RMS Force = .78434D-03 SwitMx=.10000D-02 MixMth= 2
 Mixed Optimization -- En-DIIS/RFO-DIIS
 Update second derivatives using D2CorX and points    1    2    3
 DE= -9.53D-04 DEPred=-7.55D-04 R= 1.26D+00
 TightC=F SS=  1.41D+00  RLast= 7.44D-02 DXNew= 8.4853D-01 2.2319D-01
 Trust test= 1.26D+00 RLast= 7.44D-02 DXMaxT set to 5.05D-01
 ITU=  1  1  0
 Use linear search instead of GDIIS.
     Eigenvalues ---    0.00688   0.01459   0.01645   0.02087   0.02110
     Eigenvalues ---    0.02135   0.02156   0.02177   0.02182   0.02186
     Eigenvalues ---    0.02193   0.02918   0.15475   0.16000   0.16000
     Eigenvalues ---    0.16000   0.16003   0.16466   0.21988   0.22002
     Eigenvalues ---    0.23096   0.24128   0.25000   0.30527   0.31514
     Eigenvalues ---    0.35093   0.35105   0.35110   0.35113   0.35330
     Eigenvalues ---    0.42073   0.42390   0.45160   0.46290   0.46632
     Eigenvalues ---    0.47023   0.53089   0.55471   0.97317
 RFO step:  Lambda=-2.15491370D-04 EMin= 6.88030231D-03
 Quartic linear search produced a step of  0.13866.
 Iteration  1 RMS(Cart)=  0.01102695 RMS(Int)=  0.00032000
 Iteration  2 RMS(Cart)=  0.00036824 RMS(Int)=  0.00017758
 Iteration  3 RMS(Cart)=  0.00000009 RMS(Int)=  0.00017758
 ITry= 1 IFail=0 DXMaxC= 4.84D-02 DCOld= 1.00D+10 DXMaxT= 5.05D-01 DXLimC= 3.00D+00 Rises=F
 Variable       Old X    -DE/DX   Delta X   Delta X   Delta X     New X
                                 (Linear)    (Quad)   (Total)
    R1        2.63203  -0.00051  -0.00009  -0.00132  -0.00141   2.63062
    R2        2.64760   0.00068   0.00047   0.00177   0.00225   2.64985
    R3        2.04898   0.00017  -0.00020   0.00044   0.00024   2.04921
    R4        2.05268   0.00006  -0.00000   0.00013   0.00013   2.05281
    R5        2.63976  -0.00005   0.00017   0.00013   0.00030   2.64007
    R6        2.63882  -0.00040   0.00036  -0.00091  -0.00055   2.63827
    R7        2.63440   0.00010   0.00004   0.00020   0.00024   2.63464
    R8        2.05260   0.00002  -0.00007  -0.00001  -0.00007   2.05253
    R9        2.84907  -0.00208  -0.00227  -0.00679  -0.00906   2.84001
   R10        2.65210  -0.00069  -0.00131  -0.00118  -0.00250   2.64960
   R11        2.05329  -0.00004   0.00001  -0.00021  -0.00020   2.05309
   R12        2.28892  -0.00266  -0.00047  -0.00331  -0.00377   2.28515
   R13        2.55320   0.00444   0.00144   0.01104   0.01248   2.56568
   R14        2.05859  -0.00034   0.00017  -0.00101  -0.00083   2.05776
   R15        1.83245  -0.00003   0.00036  -0.00028   0.00008   1.83253
    A1        2.10529  -0.00033  -0.00075  -0.00134  -0.00209   2.10320
    A2        2.11184   0.00074   0.00109   0.00559   0.00669   2.11853
    A3        2.06605  -0.00041  -0.00034  -0.00425  -0.00459   2.06146
    A4        2.08929   0.00016   0.00002   0.00098   0.00100   2.09030
    A5        2.09613  -0.00005  -0.00008  -0.00022  -0.00030   2.09583
    A6        2.09776  -0.00011   0.00005  -0.00076  -0.00071   2.09705
    A7        2.09496  -0.00005   0.00008  -0.00054  -0.00046   2.09449
    A8        2.09883  -0.00003   0.00020  -0.00010   0.00010   2.09893
    A9        2.08940   0.00008  -0.00028   0.00064   0.00036   2.08976
   A10        2.03793  -0.00018   0.00180  -0.00320  -0.00140   2.03653
   A11        2.07457   0.00037   0.00124   0.00156   0.00280   2.07736
   A12        2.17069  -0.00019  -0.00304   0.00164  -0.00140   2.16929
   A13        2.09079   0.00029   0.00012   0.00134   0.00146   2.09225
   A14        2.09822  -0.00015  -0.00016  -0.00057  -0.00073   2.09749
   A15        2.09417  -0.00014   0.00004  -0.00077  -0.00073   2.09345
   A16        2.13428   0.00173   0.00413   0.00620   0.00951   2.14378
   A17        2.06288  -0.00102  -0.00428  -0.00136  -0.00645   2.05643
   A18        2.08595  -0.00070   0.00013  -0.00393  -0.00461   2.08134
   A19        2.10464  -0.00022  -0.00061  -0.00079  -0.00141   2.10323
   A20        2.05322   0.00030   0.00247   0.00055   0.00302   2.05624
   A21        2.12533  -0.00009  -0.00186   0.00025  -0.00161   2.12372
   A22        1.94808  -0.00124  -0.00476  -0.00506  -0.00981   1.93826
    D1       -3.14112   0.00000  -0.00004   0.00036   0.00031  -3.14080
    D2        0.00044   0.00000  -0.00004   0.00034   0.00030   0.00073
    D3        0.00025  -0.00001   0.00002  -0.00049  -0.00047  -0.00022
    D4       -3.14138  -0.00001   0.00002  -0.00050  -0.00049   3.14132
    D5        3.14080  -0.00001   0.00002  -0.00060  -0.00058   3.14023
    D6       -0.00063  -0.00002   0.00015  -0.00154  -0.00139  -0.00202
    D7       -0.00057   0.00000  -0.00004   0.00022   0.00018  -0.00039
    D8        3.14118  -0.00001   0.00009  -0.00072  -0.00064   3.14055
    D9        0.00024   0.00000  -0.00003   0.00016   0.00013   0.00036
   D10       -3.14145  -0.00000   0.00002  -0.00024  -0.00022   3.14152
   D11       -3.14139   0.00000  -0.00003   0.00014   0.00011  -3.14128
   D12        0.00011  -0.00000   0.00002  -0.00026  -0.00024  -0.00013
   D13       -0.00072   0.00001  -0.00001   0.00057   0.00057  -0.00015
   D14        3.14097   0.00002  -0.00005   0.00097   0.00091  -3.14130
   D15        3.14088  -0.00000   0.00009  -0.00028  -0.00020   3.14068
   D16       -0.00062   0.00000   0.00004   0.00011   0.00015  -0.00047
   D17        0.00052  -0.00003   0.00011  -0.00181  -0.00169  -0.00117
   D18        3.14053  -0.00002   0.00019  -0.00144  -0.00125   3.13929
   D19       -3.14107  -0.00002   0.00002  -0.00096  -0.00093   3.14118
   D20       -0.00106  -0.00001   0.00010  -0.00059  -0.00049  -0.00154
   D21       -0.00199   0.00049  -0.00207   0.04986   0.04788   0.04589
   D22       -3.12997  -0.00038   0.00043  -0.02789  -0.02755   3.12567
   D23        3.13944   0.00050  -0.00221   0.05086   0.04874  -3.09501
   D24        0.01146  -0.00037   0.00029  -0.02689  -0.02669  -0.01523
   D25        0.00015   0.00003  -0.00018   0.00227   0.00209   0.00224
   D26       -3.13980   0.00003  -0.00027   0.00189   0.00162  -3.13818
   D27       -3.14127   0.00002  -0.00004   0.00126   0.00121  -3.14006
   D28        0.00197   0.00002  -0.00013   0.00087   0.00074   0.00271
   D29        0.00083   0.00035  -0.00123   0.03447   0.03302   0.03385
   D30       -3.12754  -0.00052   0.00120  -0.04115  -0.03973   3.11591
         Item               Value     Threshold  Converged?
 Maximum Force            0.004441     0.000450     NO 
 RMS     Force            0.000784     0.000300     NO 
 Maximum Displacement     0.048410     0.001800     NO 
 RMS     Displacement     0.011166     0.001200     NO 
 Predicted change in Energy=-1.195432D-04
 Lowest energy point so far.  Saving SCF results.
 GradGradGradGradGradGradGradGradGradGradGradGradGradGradGradGradGradGrad

 Leave Link  103 at Mon Sep 21 10:05:15 2026, MaxMem=  3758096384 cpu:               0.7 elap:               0.1
 (Enter /opt/software/gaussian/16RevA.03/g16/l202.exe)
                          Input orientation:                          
 ---------------------------------------------------------------------
 Center     Atomic      Atomic             Coordinates (Angstroms)
 Number     Number       Type             X           Y           Z
 ---------------------------------------------------------------------
      1          6           0       -0.845711    2.007379    0.019382
      2          6           0       -1.511646    0.788616    0.114205
      3          6           0        0.602464   -0.377539   -0.007229
      4          1           0       -2.594526    0.770886    0.198463
      5          6           0        0.551585    2.048307   -0.090940
      6          6           0       -0.789143   -0.407042    0.100914
      7          1           0       -1.385417    2.947895    0.027370
      8          6           0        1.181208    3.409341   -0.189787
      9          6           0        1.268692    0.843504   -0.101892
     10          1           0        1.170420   -1.303308   -0.017319
     11          1           0       -1.307296   -1.359098    0.174900
     12          1           0        2.354459    0.824966   -0.182565
     13          8           0        0.541182    4.433623   -0.130643
     14          1           0        2.926904    2.590163   -0.295643
     15          8           0        2.534333    3.476714   -0.278448
 ---------------------------------------------------------------------
                    Distance matrix (angstroms):
                    1          2          3          4          5
     1  C    0.000000
     2  C    1.392065   0.000000
     3  C    2.790296   2.417463   0.000000
     4  H    2.149266   1.086298   3.403225   0.000000
     5  C    1.402242   2.426072   2.427823   3.407870   0.000000
     6  C    2.416460   1.397064   1.396114   2.157879   2.804121
     7  H    1.084397   2.164707   3.874452   2.496114   2.138980
     8  C    2.473388   3.769890   3.835197   4.622592   1.502868
     9  C    2.416612   2.789264   1.394191   3.875558   1.402110
    10  H    3.876439   3.403957   1.086151   4.303912   3.409061
    11  H    3.401531   2.158267   2.154951   2.488844   3.890567
    12  H    3.417597   3.877649   2.132193   4.963926   2.180668
    13  O    2.798685   4.190481   4.813135   4.832869   2.385670
    14  H    3.830339   4.807730   3.780669   5.834390   2.444924
    15  O    3.697613   4.873396   4.319831   5.818432   2.450877
                    6          7          8          9         10
     6  C    0.000000
     7  H    3.408307   0.000000
     8  C    4.304831   2.616803   0.000000
     9  C    2.416543   3.389612   2.568832   0.000000
    10  H    2.158045   4.960547   4.715817   2.150724   0.000000
    11  H    1.086447   4.310226   5.391072   3.400557   2.485786
    12  H    3.388279   4.305529   2.838233   1.088917   2.441067
    13  O    5.025477   2.438061   1.209250   3.663203   5.772449
    14  H    4.790564   4.339173   1.931246   2.416200   4.280400
    15  O    5.125716   3.967067   1.357700   2.926911   4.977656
                   11         12         13         14         15
    11  H    0.000000
    12  H    4.278594   0.000000
    13  O    6.088172   4.038945   0.000000
    14  H    5.809176   1.859140   3.019477   0.000000
    15  O    6.192634   2.659570   2.215891   0.969731   0.000000
 Stoichiometry    C7H6O2
 Framework group  C1[X(C7H6O2)]
 Deg. of freedom    39
 Full point group                 C1      NOp   1
 RotChk:  IX=2 Diff= 3.43D-03
 Largest Abelian subgroup         C1      NOp   1
 Largest concise Abelian subgroup C1      NOp   1
                         Standard orientation:                         
 ---------------------------------------------------------------------
 Center     Atomic      Atomic             Coordinates (Angstroms)
 Number     Number       Type             X           Y           Z
 ---------------------------------------------------------------------
      1          6           0       -0.486819   -1.210950    0.009059
      2          6           0       -1.878805   -1.197756    0.002347
      3          6           0       -1.857207    1.219595   -0.006429
      4          1           0       -2.427019   -2.135575    0.003046
      5          6           0        0.236393   -0.009599    0.009215
      6          6           0       -2.567558    0.017707   -0.005194
      7          1           0        0.069057   -2.142014    0.015224
      8          6           0        1.734877   -0.123924    0.018552
      9          6           0       -0.463103    1.205528    0.000034
     10          1           0       -2.386347    2.168115   -0.013130
     11          1           0       -3.653925    0.029804   -0.010511
     12          1           0        0.054696    2.163450   -0.003391
     13          8           0        2.311595   -1.186054   -0.020943
     14          1           0        1.878288    1.801981    0.012620
     15          8           0        2.458229    1.024883   -0.000227
 ---------------------------------------------------------------------
 Rotational constants (GHZ):           3.8434406           1.2160325           0.9238116
 Leave Link  202 at Mon Sep 21 10:05:15 2026, MaxMem=  3758096384 cpu:               0.3 elap:               0.1
 (Enter /opt/software/gaussian/16RevA.03/g16/l301.exe)
 Standard basis: 6-31G(d) (6D, 7F)
 Ernie: Thresh=  0.10000D-02 Tol=  0.10000D-05 Strict=F.
 There are   147 symmetry adapted cartesian basis functions of A   symmetry.
 There are   147 symmetry adapted basis functions of A   symmetry.
   147 basis functions,   276 primitive gaussians,   147 cartesian basis functions
    32 alpha electrons       32 beta electrons
       nuclear repulsion energy       404.0813007384 Hartrees.
 IExCor=  402 DFT=T Ex+Corr=B3LYP ExCW=0 ScaHFX=  0.200000
 ScaDFX=  0.800000  0.720000  1.000000  0.810000 ScalE2=  1.000000  1.000000
 IRadAn=      5 IRanWt=     -1 IRanGd=            0 ICorTp=0 IEmpDi=  4
 NAtoms=   15 NActive=   15 NUniq=   15 SFac= 1.00D+00 NAtFMM=   60 NAOKFM=F Big=F
 Integral buffers will be    131072 words long.
 Raffenetti 2 integral format.
 Two-electron integral symmetry is turned on.
 Leave Link  301 at Mon Sep 21 10:05:15 2026, MaxMem=  3758096384 cpu:               0.5 elap:               0.1
 (Enter /opt/software/gaussian/16RevA.03/g16/l302.exe)
 NPDir=0 NMtPBC=     1 NCelOv=     1 NCel=       1 NClECP=     1 NCelD=      1
         NCelK=      1 NCelE2=     1 NClLst=     1 CellRange=     0.0.
 One-electron integrals computed using PRISM.
 One-electron integral symmetry used in STVInt
 NBasis=   147 RedAO= T EigKep=  4.68D-04  NBF=   147
 NBsUse=   147 1.00D-06 EigRej= -1.00D+00 NBFU=   147
 Precomputing XC quadrature grid using
 IXCGrd= 4 IRadAn=           5 IRanWt=          -1 IRanGd=           0 AccXCQ= 0.00D+00.
 Generated NRdTot=       0 NPtTot=           0 NUsed=           0 NTot=          32
 NSgBfM=   147   147   147   147   147 MxSgAt=    15 MxSgA2=    15.
 Leave Link  302 at Mon Sep 21 10:05:15 2026, MaxMem=  3758096384 cpu:               1.0 elap:               0.1
 (Enter /opt/software/gaussian/16RevA.03/g16/l303.exe)
 DipDrv:  MaxL=1.
 Leave Link  303 at Mon Sep 21 10:05:15 2026, MaxMem=  3758096384 cpu:               0.2 elap:               0.0
 (Enter /opt/software/gaussian/16RevA.03/g16/l401.exe)
 Initial guess from the checkpoint file:  "job.chk"
 B after Tr=     0.000000   -0.000000    0.000000
         Rot=    1.000000   -0.000007    0.000005    0.000006 Ang=  -0.00 deg.
 Guess basis will be translated and rotated to current coordinates.
 JPrj=2 DoOrth=T DoCkMO=T.
 Generating alternative initial guess.
 ExpMin= 1.61D-01 ExpMax= 5.48D+03 ExpMxC= 8.25D+02 IAcc=2 IRadAn=         4 AccDes= 0.00D+00
 Harris functional with IExCor=  402 and IRadAn=       4 diagonalized for initial guess.
 HarFok:  IExCor=  402 AccDes= 0.00D+00 IRadAn=         4 IDoV= 1 UseB2=F ITyADJ=14
 ICtDFT=  3500011 ScaDFX=  1.000000  1.000000  1.000000  1.000000
 FoFCou: FMM=F IPFlag=           0 FMFlag=      100000 FMFlg1=           0
         NFxFlg=           0 DoJE=T BraDBF=F KetDBF=T FulRan=T
         wScrn=  0.000000 ICntrl=       500 IOpCl=  0 I1Cent=   200000004 NGrid=           0
         NMat0=    1 NMatS0=      1 NMatT0=    0 NMatD0=    1 NMtDS0=    0 NMtDT0=    0
 Petite list used in FoFCou.
 Harris En= -420.838146843733    
 Leave Link  401 at Mon Sep 21 10:05:16 2026, MaxMem=  3758096384 cpu:               2.4 elap:               0.3
 (Enter /opt/software/gaussian/16RevA.03/g16/l502.exe)
 Integral symmetry usage will be decided dynamically.
 Closed shell SCF:
 Using DIIS extrapolation, IDIIS=  1040.
 NGot=  3758096384 LenX=  3758050306 LenY=  3758028256
 Requested convergence on RMS density matrix=1.00D-08 within 128 cycles.
 Requested convergence on MAX density matrix=1.00D-06.
 Requested convergence on             energy=1.00D-06.
 No special actions if energy rises.
 Fock matrices will be formed incrementally for  20 cycles.
 Integral accuracy reduced to 1.0D-05 until final iterations.

 Cycle   1  Pass 0  IDiag  1:
 FoFJK:  IHMeth= 1 ICntrl=       0 DoSepK=F KAlg= 0 I1Cent=           0 FoldK=F
 IRaf= 940000000 NMat=       1 IRICut=       1 DoRegI=T DoRafI=F ISym2E= 0 IDoP0=0 IntGTp=1.
 FoFCou: FMM=F IPFlag=           0 FMFlag=      100000 FMFlg1=           0
         NFxFlg=           0 DoJE=F BraDBF=F KetDBF=F FulRan=T
         wScrn=  0.000000 ICntrl=         0 IOpCl=  0 I1Cent=           0 NGrid=           0
         NMat0=    1 NMatS0=      1 NMatT0=    0 NMatD0=    1 NMtDS0=    0 NMtDT0=    0
 Symmetry not used in FoFCou.
 E= -420.808523264789    
 DIIS: error= 1.98D-03 at cycle   1 NSaved=   1.
 NSaved= 1 IEnMin= 1 EnMin= -420.808523264789     IErMin= 1 ErrMin= 1.98D-03
 ErrMax= 1.98D-03  0.00D+00 EMaxC= 1.00D-01 BMatC= 6.79D-04 BMatP= 6.79D-04
 IDIUse=3 WtCom= 9.80D-01 WtEn= 1.98D-02
 Coeff-Com:  0.100D+01
 Coeff-En:   0.100D+01
 Coeff:      0.100D+01
 Gap=     1.914 Goal=   None    Shift=    0.000
 GapD=    1.914 DampG=2.000 DampE=1.000 DampFc=2.0000 IDamp=-1.
 RMSDP=5.00D-04 MaxDP=1.30D-02              OVMax= 1.05D-02

 Cycle   2  Pass 0  IDiag  1:
 RMSU=  5.00D-04    CP:  1.00D+00
 E= -420.809724162794     Delta-E=       -0.001200898005 Rises=F Damp=F
 DIIS: error= 2.64D-04 at cycle   2 NSaved=   2.
 NSaved= 2 IEnMin= 2 EnMin= -420.809724162794     IErMin= 2 ErrMin= 2.64D-04
 ErrMax= 2.64D-04  0.00D+00 EMaxC= 1.00D-01 BMatC= 2.19D-05 BMatP= 6.79D-04
 IDIUse=3 WtCom= 9.97D-01 WtEn= 2.64D-03
 Coeff-Com: -0.351D-01 0.104D+01
 Coeff-En:   0.000D+00 0.100D+01
 Coeff:     -0.350D-01 0.104D+01
 Gap=     0.215 Goal=   None    Shift=    0.000
 RMSDP=6.76D-05 MaxDP=1.89D-03 DE=-1.20D-03 OVMax= 2.69D-03

 Cycle   3  Pass 0  IDiag  1:
 RMSU=  6.46D-05    CP:  1.00D+00  1.04D+00
 E= -420.809714358801     Delta-E=        0.000009803992 Rises=F Damp=F
 DIIS: error= 5.85D-04 at cycle   3 NSaved=   3.
 NSaved= 3 IEnMin= 2 EnMin= -420.809724162794     IErMin= 2 ErrMin= 2.64D-04
 ErrMax= 5.85D-04  0.00D+00 EMaxC= 1.00D-01 BMatC= 4.36D-05 BMatP= 2.19D-05
 IDIUse=3 WtCom= 2.92D-01 WtEn= 7.08D-01
 Coeff-Com: -0.479D-01 0.636D+00 0.412D+00
 Coeff-En:   0.000D+00 0.596D+00 0.404D+00
 Coeff:     -0.140D-01 0.608D+00 0.406D+00
 Gap=     0.215 Goal=   None    Shift=    0.000
 RMSDP=4.59D-05 MaxDP=1.46D-03 DE= 9.80D-06 OVMax= 2.00D-03

 Cycle   4  Pass 0  IDiag  1:
 RMSU=  2.19D-05    CP:  1.00D+00  1.05D+00  3.81D-01
 E= -420.809748096717     Delta-E=       -0.000033737916 Rises=F Damp=F
 DIIS: error= 1.51D-04 at cycle   4 NSaved=   4.
 NSaved= 4 IEnMin= 4 EnMin= -420.809748096717     IErMin= 4 ErrMin= 1.51D-04
 ErrMax= 1.51D-04  0.00D+00 EMaxC= 1.00D-01 BMatC= 2.03D-06 BMatP= 2.19D-05
 IDIUse=3 WtCom= 9.98D-01 WtEn= 1.51D-03
 Coeff-Com: -0.150D-01 0.154D+00 0.212D+00 0.648D+00
 Coeff-En:   0.000D+00 0.000D+00 0.000D+00 0.100D+01
 Coeff:     -0.150D-01 0.154D+00 0.212D+00 0.649D+00
 Gap=     0.215 Goal=   None    Shift=    0.000
 RMSDP=1.17D-05 MaxDP=3.46D-04 DE=-3.37D-05 OVMax= 5.69D-04

 Cycle   5  Pass 0  IDiag  1:
 RMSU=  7.71D-06    CP:  1.00D+00  1.05D+00  4.93D-01  7.68D-01
 E= -420.809749673736     Delta-E=       -0.000001577018 Rises=F Damp=F
 DIIS: error= 5.54D-05 at cycle   5 NSaved=   5.
 NSaved= 5 IEnMin= 5 EnMin= -420.809749673736     IErMin= 5 ErrMin= 5.54D-05
 ErrMax= 5.54D-05  0.00D+00 EMaxC= 1.00D-01 BMatC= 3.79D-07 BMatP= 2.03D-06
 IDIUse=1 WtCom= 1.00D+00 WtEn= 0.00D+00
 Coeff-Com: -0.570D-02 0.469D-01 0.103D+00 0.421D+00 0.434D+00
 Coeff:     -0.570D-02 0.469D-01 0.103D+00 0.421D+00 0.434D+00
 Gap=     0.215 Goal=   None    Shift=    0.000
 RMSDP=4.14D-06 MaxDP=1.49D-04 DE=-1.58D-06 OVMax= 1.58D-04

 Initial convergence to 1.0D-05 achieved.  Increase integral accuracy.
 Cycle   6  Pass 1  IDiag  1:
 E= -420.809743421893     Delta-E=        0.000006251843 Rises=F Damp=F
 DIIS: error= 9.10D-06 at cycle   1 NSaved=   1.
 NSaved= 1 IEnMin= 1 EnMin= -420.809743421893     IErMin= 1 ErrMin= 9.10D-06
 ErrMax= 9.10D-06  0.00D+00 EMaxC= 1.00D-01 BMatC= 3.08D-08 BMatP= 3.08D-08
 IDIUse=1 WtCom= 1.00D+00 WtEn= 0.00D+00
 Coeff-Com:  0.100D+01
 Coeff:      0.100D+01
 Gap=     0.215 Goal=   None    Shift=    0.000
 RMSDP=4.14D-06 MaxDP=1.49D-04 DE= 6.25D-06 OVMax= 9.74D-05

 Cycle   7  Pass 1  IDiag  1:
 RMSU=  5.45D-06    CP:  1.00D+00
 E= -420.809743395118     Delta-E=        0.000000026775 Rises=F Damp=F
 DIIS: error= 2.11D-05 at cycle   2 NSaved=   2.
 NSaved= 2 IEnMin= 1 EnMin= -420.809743421893     IErMin= 1 ErrMin= 9.10D-06
 ErrMax= 2.11D-05  0.00D+00 EMaxC= 1.00D-01 BMatC= 6.29D-08 BMatP= 3.08D-08
 IDIUse=1 WtCom= 1.00D+00 WtEn= 0.00D+00
 Coeff-Com:  0.605D+00 0.395D+00
 Coeff:      0.605D+00 0.395D+00
 Gap=     0.215 Goal=   None    Shift=    0.000
 RMSDP=1.96D-06 MaxDP=6.57D-05 DE= 2.68D-08 OVMax= 9.05D-05

 Cycle   8  Pass 1  IDiag  1:
 RMSU=  1.80D-06    CP:  1.00D+00  8.59D-01
 E= -420.809743443430     Delta-E=       -0.000000048312 Rises=F Damp=F
 DIIS: error= 5.91D-06 at cycle   3 NSaved=   3.
 NSaved= 3 IEnMin= 3 EnMin= -420.809743443430     IErMin= 3 ErrMin= 5.91D-06
 ErrMax= 5.91D-06  0.00D+00 EMaxC= 1.00D-01 BMatC= 5.32D-09 BMatP= 3.08D-08
 IDIUse=1 WtCom= 1.00D+00 WtEn= 0.00D+00
 Coeff-Com:  0.545D-01 0.227D+00 0.718D+00
 Coeff:      0.545D-01 0.227D+00 0.718D+00
 Gap=     0.215 Goal=   None    Shift=    0.000
 RMSDP=5.24D-07 MaxDP=1.74D-05 DE=-4.83D-08 OVMax= 3.08D-05

 Cycle   9  Pass 1  IDiag  1:
 RMSU=  2.69D-07    CP:  1.00D+00  9.01D-01  7.85D-01
 E= -420.809743447546     Delta-E=       -0.000000004117 Rises=F Damp=F
 DIIS: error= 2.30D-06 at cycle   4 NSaved=   4.
 NSaved= 4 IEnMin= 4 EnMin= -420.809743447546     IErMin= 4 ErrMin= 2.30D-06
 ErrMax= 2.30D-06  0.00D+00 EMaxC= 1.00D-01 BMatC= 5.55D-10 BMatP= 5.32D-09
 IDIUse=1 WtCom= 1.00D+00 WtEn= 0.00D+00
 Coeff-Com:  0.465D-02 0.117D+00 0.431D+00 0.448D+00
 Coeff:      0.465D-02 0.117D+00 0.431D+00 0.448D+00
 Gap=     0.215 Goal=   None    Shift=    0.000
 RMSDP=1.55D-07 MaxDP=5.56D-06 DE=-4.12D-09 OVMax= 7.64D-06

 Cycle  10  Pass 1  IDiag  1:
 RMSU=  1.01D-07    CP:  1.00D+00  9.02D-01  7.93D-01  5.70D-01
 E= -420.809743447956     Delta-E=       -0.000000000410 Rises=F Damp=F
 DIIS: error= 3.74D-07 at cycle   5 NSaved=   5.
 NSaved= 5 IEnMin= 5 EnMin= -420.809743447956     IErMin= 5 ErrMin= 3.74D-07
 ErrMax= 3.74D-07  0.00D+00 EMaxC= 1.00D-01 BMatC= 3.21D-11 BMatP= 5.55D-10
 IDIUse=1 WtCom= 1.00D+00 WtEn= 0.00D+00
 Coeff-Com: -0.517D-02 0.335D-01 0.144D+00 0.236D+00 0.592D+00
 Coeff:     -0.517D-02 0.335D-01 0.144D+00 0.236D+00 0.592D+00
 Gap=     0.215 Goal=   None    Shift=    0.000
 RMSDP=4.73D-08 MaxDP=7.51D-07 DE=-4.10D-10 OVMax= 2.55D-06

 Cycle  11  Pass 1  IDiag  1:
 RMSU=  3.52D-08    CP:  1.00D+00  9.02D-01  7.99D-01  6.36D-01  7.67D-01
 E= -420.809743447988     Delta-E=       -0.000000000032 Rises=F Damp=F
 DIIS: error= 1.66D-07 at cycle   6 NSaved=   6.
 NSaved= 6 IEnMin= 6 EnMin= -420.809743447988     IErMin= 6 ErrMin= 1.66D-07
 ErrMax= 1.66D-07  0.00D+00 EMaxC= 1.00D-01 BMatC= 2.17D-12 BMatP= 3.21D-11
 IDIUse=1 WtCom= 1.00D+00 WtEn= 0.00D+00
 Coeff-Com: -0.269D-02 0.902D-02 0.422D-01 0.820D-01 0.275D+00 0.595D+00
 Coeff:     -0.269D-02 0.902D-02 0.422D-01 0.820D-01 0.275D+00 0.595D+00
 Gap=     0.215 Goal=   None    Shift=    0.000
 RMSDP=1.70D-08 MaxDP=3.84D-07 DE=-3.24D-11 OVMax= 8.80D-07

 Cycle  12  Pass 1  IDiag  1:
 RMSU=  1.34D-08    CP:  1.00D+00  9.02D-01  7.98D-01  6.36D-01  8.52D-01
                    CP:  8.45D-01
 E= -420.809743447990     Delta-E=       -0.000000000002 Rises=F Damp=F
 DIIS: error= 9.08D-08 at cycle   7 NSaved=   7.
 NSaved= 7 IEnMin= 7 EnMin= -420.809743447990     IErMin= 7 ErrMin= 9.08D-08
 ErrMax= 9.08D-08  0.00D+00 EMaxC= 1.00D-01 BMatC= 6.60D-13 BMatP= 2.17D-12
 IDIUse=1 WtCom= 1.00D+00 WtEn= 0.00D+00
 Coeff-Com:  0.444D-04-0.535D-02-0.209D-01-0.282D-01-0.327D-01 0.374D+00
 Coeff-Com:  0.713D+00
 Coeff:      0.444D-04-0.535D-02-0.209D-01-0.282D-01-0.327D-01 0.374D+00
 Coeff:      0.713D+00
 Gap=     0.215 Goal=   None    Shift=    0.000
 RMSDP=7.69D-09 MaxDP=1.64D-07 DE=-2.05D-12 OVMax= 4.42D-07

 SCF Done:  E(RB3LYP) =  -420.809743448     A.U. after   12 cycles
            NFock= 12  Conv=0.77D-08     -V/T= 2.0093
 KE= 4.169305397865D+02 PE=-1.788721210970D+03 EE= 5.468996269970D+02
 Leave Link  502 at Mon Sep 21 10:05:20 2026, MaxMem=  3758096384 cpu:              36.6 elap:               4.7
 (Enter /opt/software/gaussian/16RevA.03/g16/l701.exe)
 ... and contract with generalized density number  0.
 Compute integral first derivatives.
 Leave Link  701 at Mon Sep 21 10:05:21 2026, MaxMem=  3758096384 cpu:               0.6 elap:               0.1
 (Enter /opt/software/gaussian/16RevA.03/g16/l702.exe)
 L702 exits ... SP integral derivatives will be done elsewhere.
 Leave Link  702 at Mon Sep 21 10:05:21 2026, MaxMem=  3758096384 cpu:               0.1 elap:               0.0
 (Enter /opt/software/gaussian/16RevA.03/g16/l703.exe)
 Integral derivatives from FoFJK, PRISM(SPDF).
 Compute integral first derivatives, UseDBF=F ICtDFT=           0.
 Calling FoFJK, ICntrl=      2127 FMM=F ISym2X=0 I1Cent= 0 IOpClX= 0 NMat=1 NMatS=1 NMatT=0.
 FoFJK:  IHMeth= 1 ICntrl=    2127 DoSepK=F KAlg= 0 I1Cent=           0 FoldK=F
 IRaf=         0 NMat=       1 IRICut=       1 DoRegI=T DoRafI=F ISym2E= 0 IDoP0=0 IntGTp=1.
 FoFCou: FMM=F IPFlag=           0 FMFlag=      100000 FMFlg1=         800
         NFxFlg=           0 DoJE=F BraDBF=F KetDBF=F FulRan=T
         wScrn=  0.000000 ICntrl=      2127 IOpCl=  0 I1Cent=           0 NGrid=           0
         NMat0=    1 NMatS0=      1 NMatT0=    0 NMatD0=    1 NMtDS0=    0 NMtDT0=    0
 Symmetry not used in FoFCou.
 Leave Link  703 at Mon Sep 21 10:05:22 2026, MaxMem=  3758096384 cpu:               9.4 elap:               1.2
 (Enter /opt/software/gaussian/16RevA.03/g16/l716.exe)
 Dipole        =-1.60409829D+00 9.95269459D-01 3.27620636D-02
 ***** Axes restored to original set *****
 -------------------------------------------------------------------
 Center     Atomic                   Forces (Hartrees/Bohr)
 Number     Number              X              Y              Z
 -------------------------------------------------------------------
      1        6          -0.000123969   -0.000442849   -0.000245291
      2        6          -0.000019137    0.000252687    0.000101556
      3        6          -0.000259465   -0.000114810    0.000231800
      4        1          -0.000026946   -0.000104482    0.000028970
      5        6          -0.000079466    0.000261678   -0.002108291
      6        6           0.000384843    0.000091036   -0.000057869
      7        1          -0.000088694    0.000058077    0.000016123
      8        6          -0.000080547    0.000329713    0.008127715
      9        6          -0.000014430   -0.000182301   -0.000261856
     10        1          -0.000039725   -0.000058605    0.000044298
     11        1          -0.000037830   -0.000025126   -0.000025546
     12        1          -0.000208507   -0.000360479   -0.000085437
     13        8          -0.000400949   -0.000073125   -0.003273889
     14        1           0.000095348    0.000320242   -0.000469504
     15        8           0.000899473    0.000048343   -0.002022779
 -------------------------------------------------------------------
 Cartesian Forces:  Max     0.008127715 RMS     0.001396589
 Leave Link  716 at Mon Sep 21 10:05:22 2026, MaxMem=  3758096384 cpu:               0.2 elap:               0.0
 (Enter /opt/software/gaussian/16RevA.03/g16/l103.exe)

 GradGradGradGradGradGradGradGradGradGradGradGradGradGradGradGradGradGrad
 Berny optimization.
 Using GEDIIS/GDIIS optimizer.
 FormGI is forming the generalized inverse of G from B-inverse, IUseBI=4.
 Internal  Forces:  Max     0.002314463 RMS     0.000670763
 Search for a local minimum.
 Step number   4 out of a maximum of   77
 All quantities printed in internal units (Hartrees-Bohrs-Radians)
 RMS Force = .67076D-03 SwitMx=.10000D-02 MixMth= 2
 Mixed Optimization -- En-DIIS/RFO-DIIS
 Swapping is turned off.
 Update second derivatives using D2CorX and points    1    2    3    4
 DE=  1.09D-04 DEPred=-1.20D-04 R=-9.15D-01
 Trust test=-9.15D-01 RLast= 9.72D-02 DXMaxT set to 2.52D-01
 ITU= -1  1  1  0
     Eigenvalues ---    0.00684   0.01646   0.02083   0.02110   0.02135
     Eigenvalues ---    0.02155   0.02177   0.02182   0.02186   0.02192
     Eigenvalues ---    0.02883   0.04619   0.12368   0.16000   0.16000
     Eigenvalues ---    0.16002   0.16187   0.16620   0.19947   0.22007
     Eigenvalues ---    0.22036   0.23695   0.24998   0.28093   0.30277
     Eigenvalues ---    0.35100   0.35105   0.35108   0.35122   0.35361
     Eigenvalues ---    0.41608   0.42351   0.44036   0.46376   0.46628
     Eigenvalues ---    0.47034   0.51574   0.53685   0.96821
 En-DIIS/RFO-DIIS/Sim-DIIS IScMMF=       -3 using points:     4    3
 RFO step:  Lambda=-4.57344360D-04.
 NNeg= 0 NGDIIS= 2 SimSw=  2.50D-03 Rises=T DC=  1.09D-04 SmlDif=  1.00D-05
 NRisDI= 1 DoIntr=F SqrtH=F CThrHd= 10.0 CDAdj=  3.0
 RMS Error=  0.1168241402D-01 NUsed= 2 OKEnD=T EnDIS=T
 InvSVX:  RCond= 1.03D-02 Info=           0 Equed=N FErr=  1.39D-15 BErr=  6.44D-17
 IWarn =    0
 DidBck=T Rises=T En-DIIS coefs:    0.42180    0.57820
 Iteration  1 RMS(Cart)=  0.01043858 RMS(Int)=  0.00024876
 Iteration  2 RMS(Cart)=  0.00033991 RMS(Int)=  0.00010265
 Iteration  3 RMS(Cart)=  0.00000009 RMS(Int)=  0.00010265
 ITry= 1 IFail=0 DXMaxC= 4.40D-02 DCOld= 1.00D+10 DXMaxT= 2.52D-01 DXLimC= 3.00D+00 Rises=F
 Variable       Old X    -DE/DX   Delta X   Delta X   Delta X     New X
                                 (Linear)    (Quad)   (Total)
    R1        2.63062  -0.00016   0.00082  -0.00194  -0.00112   2.62950
    R2        2.64985   0.00030  -0.00130   0.00328   0.00198   2.65183
    R3        2.04921   0.00009  -0.00014   0.00020   0.00007   2.04928
    R4        2.05281   0.00003  -0.00007   0.00015   0.00008   2.05288
    R5        2.64007  -0.00010  -0.00017   0.00049   0.00031   2.64038
    R6        2.63827  -0.00040   0.00032  -0.00076  -0.00045   2.63783
    R7        2.63464   0.00014  -0.00014   0.00044   0.00030   2.63494
    R8        2.05253   0.00003   0.00004  -0.00012  -0.00008   2.05245
    R9        2.84001   0.00063   0.00524  -0.01099  -0.00575   2.83426
   R10        2.64960   0.00057   0.00144  -0.00292  -0.00147   2.64813
   R11        2.05309   0.00004   0.00012  -0.00023  -0.00012   2.05297
   R12        2.28515  -0.00001   0.00218  -0.00486  -0.00268   2.28247
   R13        2.56568   0.00117  -0.00722   0.01812   0.01090   2.57658
   R14        2.05776  -0.00020   0.00048  -0.00108  -0.00060   2.05716
   R15        1.83253  -0.00025  -0.00005  -0.00001  -0.00005   1.83247
    A1        2.10320   0.00027   0.00121  -0.00235  -0.00114   2.10205
    A2        2.11853  -0.00018  -0.00387   0.00872   0.00485   2.12338
    A3        2.06146  -0.00008   0.00266  -0.00636  -0.00371   2.05775
    A4        2.09030   0.00010  -0.00058   0.00149   0.00090   2.09120
    A5        2.09583   0.00001   0.00017  -0.00046  -0.00029   2.09555
    A6        2.09705  -0.00011   0.00041  -0.00103  -0.00062   2.09643
    A7        2.09449   0.00007   0.00027  -0.00047  -0.00020   2.09429
    A8        2.09893  -0.00011  -0.00006   0.00009   0.00003   2.09896
    A9        2.08976   0.00003  -0.00021   0.00038   0.00018   2.08993
   A10        2.03653  -0.00050   0.00081  -0.00261  -0.00180   2.03473
   A11        2.07736  -0.00050  -0.00162   0.00317   0.00156   2.07892
   A12        2.16929   0.00101   0.00081  -0.00056   0.00024   2.16953
   A13        2.09225   0.00008  -0.00084   0.00184   0.00100   2.09324
   A14        2.09749  -0.00006   0.00042  -0.00099  -0.00057   2.09692
   A15        2.09345  -0.00002   0.00042  -0.00085  -0.00043   2.09302
   A16        2.14378  -0.00055  -0.00550   0.01306   0.00716   2.15095
   A17        2.05643   0.00110   0.00373  -0.00587  -0.00254   2.05390
   A18        2.08134  -0.00035   0.00266  -0.00538  -0.00311   2.07823
   A19        2.10323   0.00008   0.00081  -0.00173  -0.00091   2.10232
   A20        2.05624  -0.00041  -0.00175   0.00349   0.00174   2.05798
   A21        2.12372   0.00033   0.00093  -0.00176  -0.00083   2.12289
   A22        1.93826   0.00045   0.00567  -0.01174  -0.00607   1.93219
    D1       -3.14080  -0.00005  -0.00018  -0.00076  -0.00094   3.14144
    D2        0.00073  -0.00004  -0.00017  -0.00056  -0.00073   0.00001
    D3       -0.00022   0.00003   0.00027   0.00016   0.00043   0.00021
    D4        3.14132   0.00005   0.00028   0.00036   0.00064  -3.14122
    D5        3.14023   0.00012   0.00033   0.00176   0.00209  -3.14087
    D6       -0.00202   0.00011   0.00080   0.00084   0.00165  -0.00037
    D7       -0.00039   0.00003  -0.00010   0.00086   0.00076   0.00037
    D8        3.14055   0.00003   0.00037  -0.00005   0.00032   3.14087
    D9        0.00036  -0.00001  -0.00007  -0.00003  -0.00010   0.00026
   D10        3.14152   0.00000   0.00013  -0.00016  -0.00003   3.14148
   D11       -3.14128   0.00001  -0.00006   0.00017   0.00011  -3.14117
   D12       -0.00013   0.00002   0.00014   0.00004   0.00018   0.00005
   D13       -0.00015  -0.00002  -0.00033   0.00031  -0.00002  -0.00016
   D14       -3.14130  -0.00003  -0.00053   0.00044  -0.00008  -3.14138
   D15        3.14068   0.00001   0.00011   0.00005   0.00016   3.14084
   D16       -0.00047  -0.00000  -0.00009   0.00018   0.00009  -0.00038
   D17       -0.00117   0.00009   0.00098  -0.00001   0.00096  -0.00021
   D18        3.13929   0.00003   0.00072  -0.00055   0.00017   3.13946
   D19        3.14118   0.00007   0.00054   0.00025   0.00079  -3.14122
   D20       -0.00154   0.00001   0.00028  -0.00028  -0.00000  -0.00155
   D21        0.04589  -0.00207  -0.02768  -0.01184  -0.03966   0.00623
   D22        3.12567   0.00193   0.01593   0.02212   0.03818  -3.11933
   D23       -3.09501  -0.00206  -0.02818  -0.01088  -0.03919  -3.13421
   D24       -0.01523   0.00194   0.01543   0.02309   0.03865   0.02342
   D25        0.00224  -0.00014  -0.00121  -0.00056  -0.00176   0.00047
   D26       -3.13818  -0.00008  -0.00094  -0.00000  -0.00094  -3.13912
   D27       -3.14006  -0.00015  -0.00070  -0.00155  -0.00224   3.14088
   D28        0.00271  -0.00008  -0.00043  -0.00099  -0.00142   0.00129
   D29        0.03385  -0.00153  -0.01909  -0.01499  -0.03380   0.00005
   D30        3.11591   0.00231   0.02297   0.01839   0.04108  -3.12620
         Item               Value     Threshold  Converged?
 Maximum Force            0.002314     0.000450     NO 
 RMS     Force            0.000671     0.000300     NO 
 Maximum Displacement     0.044014     0.001800     NO 
 RMS     Displacement     0.010531     0.001200     NO 
 Predicted change in Energy=-2.315576D-04
 GradGradGradGradGradGradGradGradGradGradGradGradGradGradGradGradGradGrad

 Leave Link  103 at Mon Sep 21 10:05:22 2026, MaxMem=  3758096384 cpu:               0.7 elap:               0.1
 (Enter /opt/software/gaussian/16RevA.03/g16/l202.exe)
                          Input orientation:                          
 ---------------------------------------------------------------------
 Center     Atomic      Atomic             Coordinates (Angstroms)
 Number     Number       Type             X           Y           Z
 ---------------------------------------------------------------------
      1          6           0       -0.846899    2.007803    0.024866
      2          6           0       -1.512085    0.788727    0.111885
      3          6           0        0.603505   -0.376421   -0.006022
      4          1           0       -2.595288    0.768938    0.191946
      5          6           0        0.551961    2.048587   -0.078820
      6          6           0       -0.788283   -0.406314    0.096475
      7          1           0       -1.382706    2.950569    0.034788
      8          6           0        1.179074    3.408187   -0.166496
      9          6           0        1.269947    0.845252   -0.093093
     10          1           0        1.171473   -1.302112   -0.017785
     11          1           0       -1.306310   -1.358817    0.164444
     12          1           0        2.355726    0.829127   -0.169754
     13          8           0        0.541685    4.433922   -0.145015
     14          1           0        2.920770    2.583742   -0.311912
     15          8           0        2.534940    3.473217   -0.294740
 ---------------------------------------------------------------------
                    Distance matrix (angstroms):
                    1          2          3          4          5
     1  C    0.000000
     2  C    1.391471   0.000000
     3  C    2.790905   2.418097   0.000000
     4  H    2.149318   1.086339   3.403428   0.000000
     5  C    1.403290   2.425676   2.426648   3.408225   0.000000
     6  C    2.415890   1.397229   1.395878   2.157684   2.802414
     7  H    1.084433   2.167082   3.874992   2.500913   2.137619
     8  C    2.470275   3.765820   3.831487   4.619516   1.499823
     9  C    2.417949   2.790146   1.394349   3.876483   1.401329
    10  H    3.877007   3.404395   1.086107   4.303688   3.408035
    11  H    3.400687   2.158020   2.154427   2.487883   3.888798
    12  H    3.418181   3.878261   2.133174   4.964574   2.179201
    13  O    2.800550   4.191828   4.812748   4.835934   2.386276
    14  H    3.826285   4.801238   3.771717   5.828747   2.439668
    15  O    3.699516   4.873422   4.316655   5.819728   2.451203
                    6          7          8          9         10
     6  C    0.000000
     7  H    3.409663   0.000000
     8  C    4.300008   2.610104   0.000000
     9  C    2.416333   3.388994   2.565596   0.000000
    10  H    2.157813   4.961037   4.712652   2.150939   0.000000
    11  H    1.086386   4.312013   5.386185   3.400198   2.485122
    12  H    3.388508   4.303281   2.834797   1.088601   2.442893
    13  O    5.025437   2.436380   1.207832   3.662188   5.771907
    14  H    4.781662   4.332974   1.932449   2.407373   4.271582
    15  O    5.123244   3.966068   1.363470   2.923537   4.973883
                   11         12         13         14         15
    11  H    0.000000
    12  H    4.278936   0.000000
    13  O    6.088241   4.035580   0.000000
    14  H    5.799905   1.848826   3.018454   0.000000
    15  O    6.189879   2.653102   2.217755   0.969703   0.000000
 Stoichiometry    C7H6O2
 Framework group  C1[X(C7H6O2)]
 Deg. of freedom    39
 Full point group                 C1      NOp   1
 RotChk:  IX=0 Diff= 1.80D-03
 Largest Abelian subgroup         C1      NOp   1
 Largest concise Abelian subgroup C1      NOp   1
                         Standard orientation:                         
 ---------------------------------------------------------------------
 Center     Atomic      Atomic             Coordinates (Angstroms)
 Number     Number       Type             X           Y           Z
 ---------------------------------------------------------------------
      1          6           0       -0.487624   -1.212501    0.003889
      2          6           0       -1.879014   -1.197754    0.006572
      3          6           0       -1.855482    1.220200   -0.004963
      4          1           0       -2.429127   -2.134493    0.011836
      5          6           0        0.236080   -0.010242   -0.003086
      6          6           0       -2.566178    0.018813    0.002311
      7          1           0        0.071771   -2.141513    0.006734
      8          6           0        1.731348   -0.126997   -0.006474
      9          6           0       -0.461215    1.205276   -0.007772
     10          1           0       -2.384219    2.168910   -0.009006
     11          1           0       -3.652484    0.031818    0.004295
     12          1           0        0.058655    2.161690   -0.015520
     13          8           0        2.312764   -1.185677   -0.009784
     14          1           0        1.871247    1.800072    0.028056
     15          8           0        2.456820    1.027271    0.013627
 ---------------------------------------------------------------------
 Rotational constants (GHZ):           3.8403621           1.2171449           0.9242533
 Leave Link  202 at Mon Sep 21 10:05:22 2026, MaxMem=  3758096384 cpu:               0.3 elap:               0.1
 (Enter /opt/software/gaussian/16RevA.03/g16/l301.exe)
 Standard basis: 6-31G(d) (6D, 7F)
 Ernie: Thresh=  0.10000D-02 Tol=  0.10000D-05 Strict=F.
 There are   147 symmetry adapted cartesian basis functions of A   symmetry.
 There are   147 symmetry adapted basis functions of A   symmetry.
   147 basis functions,   276 primitive gaussians,   147 cartesian basis functions
    32 alpha electrons       32 beta electrons
       nuclear repulsion energy       404.1088783875 Hartrees.
 IExCor=  402 DFT=T Ex+Corr=B3LYP ExCW=0 ScaHFX=  0.200000
 ScaDFX=  0.800000  0.720000  1.000000  0.810000 ScalE2=  1.000000  1.000000
 IRadAn=      5 IRanWt=     -1 IRanGd=            0 ICorTp=0 IEmpDi=  4
 NAtoms=   15 NActive=   15 NUniq=   15 SFac= 1.00D+00 NAtFMM=   60 NAOKFM=F Big=F
 Integral buffers will be    131072 words long.
 Raffenetti 2 integral format.
 Two-electron integral symmetry is turned on.
 Leave Link  301 at Mon Sep 21 10:05:22 2026, MaxMem=  3758096384 cpu:               0.5 elap:               0.1
 (Enter /opt/software/gaussian/16RevA.03/g16/l302.exe)
 NPDir=0 NMtPBC=     1 NCelOv=     1 NCel=       1 NClECP=     1 NCelD=      1
         NCelK=      1 NCelE2=     1 NClLst=     1 CellRange=     0.0.
 One-electron integrals computed using PRISM.
 One-electron integral symmetry used in STVInt
 NBasis=   147 RedAO= T EigKep=  4.68D-04  NBF=   147
 NBsUse=   147 1.00D-06 EigRej= -1.00D+00 NBFU=   147
 Precomputing XC quadrature grid using
 IXCGrd= 4 IRadAn=           5 IRanWt=          -1 IRanGd=           0 AccXCQ= 0.00D+00.
 Generated NRdTot=       0 NPtTot=           0 NUsed=           0 NTot=          32
 NSgBfM=   147   147   147   147   147 MxSgAt=    15 MxSgA2=    15.
 Leave Link  302 at Mon Sep 21 10:05:23 2026, MaxMem=  3758096384 cpu:               1.0 elap:               0.1
 (Enter /opt/software/gaussian/16RevA.03/g16/l303.exe)
 DipDrv:  MaxL=1.
 Leave Link  303 at Mon Sep 21 10:05:23 2026, MaxMem=  3758096384 cpu:               0.2 elap:               0.0
 (Enter /opt/software/gaussian/16RevA.03/g16/l401.exe)
 Initial guess from the checkpoint file:  "job.chk"
 B after Tr=    -0.000000    0.000000   -0.000000
         Rot=    1.000000   -0.000002    0.000003    0.000044 Ang=  -0.01 deg.
 Guess basis will be translated and rotated to current coordinates.
 JPrj=2 DoOrth=T DoCkMO=T.
 Generating alternative initial guess.
 ExpMin= 1.61D-01 ExpMax= 5.48D+03 ExpMxC= 8.25D+02 IAcc=2 IRadAn=         4 AccDes= 0.00D+00
 Harris functional with IExCor=  402 and IRadAn=       4 diagonalized for initial guess.
 HarFok:  IExCor=  402 AccDes= 0.00D+00 IRadAn=         4 IDoV= 1 UseB2=F ITyADJ=14
 ICtDFT=  3500011 ScaDFX=  1.000000  1.000000  1.000000  1.000000
 FoFCou: FMM=F IPFlag=           0 FMFlag=      100000 FMFlg1=           0
         NFxFlg=           0 DoJE=T BraDBF=F KetDBF=T FulRan=T
         wScrn=  0.000000 ICntrl=       500 IOpCl=  0 I1Cent=   200000004 NGrid=           0
         NMat0=    1 NMatS0=      1 NMatT0=    0 NMatD0=    1 NMtDS0=    0 NMtDT0=    0
 Petite list used in FoFCou.
 Harris En= -420.837954910370    
 Leave Link  401 at Mon Sep 21 10:05:23 2026, MaxMem=  3758096384 cpu:               2.4 elap:               0.3
 (Enter /opt/software/gaussian/16RevA.03/g16/l502.exe)
 Integral symmetry usage will be decided dynamically.
 Closed shell SCF:
 Using DIIS extrapolation, IDIIS=  1040.
 NGot=  3758096384 LenX=  3758050306 LenY=  3758028256
 Requested convergence on RMS density matrix=1.00D-08 within 128 cycles.
 Requested convergence on MAX density matrix=1.00D-06.
 Requested convergence on             energy=1.00D-06.
 No special actions if energy rises.
 Fock matrices will be formed incrementally for  20 cycles.
 Integral accuracy reduced to 1.0D-05 until final iterations.

 Cycle   1  Pass 0  IDiag  1:
 FoFJK:  IHMeth= 1 ICntrl=       0 DoSepK=F KAlg= 0 I1Cent=           0 FoldK=F
 IRaf= 940000000 NMat=       1 IRICut=       1 DoRegI=T DoRafI=F ISym2E= 0 IDoP0=0 IntGTp=1.
 FoFCou: FMM=F IPFlag=           0 FMFlag=      100000 FMFlg1=           0
         NFxFlg=           0 DoJE=F BraDBF=F KetDBF=F FulRan=T
         wScrn=  0.000000 ICntrl=         0 IOpCl=  0 I1Cent=           0 NGrid=           0
         NMat0=    1 NMatS0=      1 NMatT0=    0 NMatD0=    1 NMtDS0=    0 NMtDT0=    0
 Symmetry not used in FoFCou.
 E= -420.808802036615    
 DIIS: error= 2.05D-03 at cycle   1 NSaved=   1.
 NSaved= 1 IEnMin= 1 EnMin= -420.808802036615     IErMin= 1 ErrMin= 2.05D-03
 ErrMax= 2.05D-03  0.00D+00 EMaxC= 1.00D-01 BMatC= 5.86D-04 BMatP= 5.86D-04
 IDIUse=3 WtCom= 9.80D-01 WtEn= 2.05D-02
 Coeff-Com:  0.100D+01
 Coeff-En:   0.100D+01
 Coeff:      0.100D+01
 Gap=     1.914 Goal=   None    Shift=    0.000
 GapD=    1.914 DampG=2.000 DampE=1.000 DampFc=2.0000 IDamp=-1.
 RMSDP=5.09D-04 MaxDP=1.39D-02              OVMax= 1.07D-02

 Cycle   2  Pass 0  IDiag  1:
 RMSU=  5.09D-04    CP:  1.00D+00
 E= -420.809864832969     Delta-E=       -0.001062796354 Rises=F Damp=F
 DIIS: error= 2.43D-04 at cycle   2 NSaved=   2.
 NSaved= 2 IEnMin= 2 EnMin= -420.809864832969     IErMin= 2 ErrMin= 2.43D-04
 ErrMax= 2.43D-04  0.00D+00 EMaxC= 1.00D-01 BMatC= 1.75D-05 BMatP= 5.86D-04
 IDIUse=3 WtCom= 9.98D-01 WtEn= 2.43D-03
 Coeff-Com: -0.403D-01 0.104D+01
 Coeff-En:   0.000D+00 0.100D+01
 Coeff:     -0.402D-01 0.104D+01
 Gap=     0.215 Goal=   None    Shift=    0.000
 RMSDP=6.10D-05 MaxDP=1.74D-03 DE=-1.06D-03 OVMax= 2.46D-03

 Cycle   3  Pass 0  IDiag  1:
 RMSU=  5.63D-05    CP:  1.00D+00  1.05D+00
 E= -420.809859204275     Delta-E=        0.000005628694 Rises=F Damp=F
 DIIS: error= 5.71D-04 at cycle   3 NSaved=   3.
 NSaved= 3 IEnMin= 2 EnMin= -420.809864832969     IErMin= 2 ErrMin= 2.43D-04
 ErrMax= 5.71D-04  0.00D+00 EMaxC= 1.00D-01 BMatC= 3.45D-05 BMatP= 1.75D-05
 IDIUse=3 WtCom= 2.95D-01 WtEn= 7.05D-01
 Coeff-Com: -0.484D-01 0.639D+00 0.409D+00
 Coeff-En:   0.000D+00 0.574D+00 0.426D+00
 Coeff:     -0.143D-01 0.593D+00 0.421D+00
 Gap=     0.215 Goal=   None    Shift=    0.000
 RMSDP=4.18D-05 MaxDP=1.41D-03 DE= 5.63D-06 OVMax= 2.13D-03

 Cycle   4  Pass 0  IDiag  1:
 RMSU=  2.23D-05    CP:  1.00D+00  1.05D+00  3.75D-01
 E= -420.809884204808     Delta-E=       -0.000025000533 Rises=F Damp=F
 DIIS: error= 1.77D-04 at cycle   4 NSaved=   4.
 NSaved= 4 IEnMin= 4 EnMin= -420.809884204808     IErMin= 4 ErrMin= 1.77D-04
 ErrMax= 1.77D-04  0.00D+00 EMaxC= 1.00D-01 BMatC= 2.64D-06 BMatP= 1.75D-05
 IDIUse=3 WtCom= 9.98D-01 WtEn= 1.77D-03
 Coeff-Com: -0.155D-01 0.159D+00 0.245D+00 0.612D+00
 Coeff-En:   0.000D+00 0.000D+00 0.587D-01 0.941D+00
 Coeff:     -0.154D-01 0.159D+00 0.244D+00 0.612D+00
 Gap=     0.215 Goal=   None    Shift=    0.000
 RMSDP=1.24D-05 MaxDP=4.09D-04 DE=-2.50D-05 OVMax= 6.65D-04

 Cycle   5  Pass 0  IDiag  1:
 RMSU=  7.52D-06    CP:  1.00D+00  1.05D+00  5.20D-01  7.57D-01
 E= -420.809886186167     Delta-E=       -0.000001981359 Rises=F Damp=F
 DIIS: error= 5.53D-05 at cycle   5 NSaved=   5.
 NSaved= 5 IEnMin= 5 EnMin= -420.809886186167     IErMin= 5 ErrMin= 5.53D-05
 ErrMax= 5.53D-05  0.00D+00 EMaxC= 1.00D-01 BMatC= 3.63D-07 BMatP= 2.64D-06
 IDIUse=1 WtCom= 1.00D+00 WtEn= 0.00D+00
 Coeff-Com: -0.556D-02 0.446D-01 0.123D+00 0.403D+00 0.435D+00
 Coeff:     -0.556D-02 0.446D-01 0.123D+00 0.403D+00 0.435D+00
 Gap=     0.215 Goal=   None    Shift=    0.000
 RMSDP=4.01D-06 MaxDP=1.43D-04 DE=-1.98D-06 OVMax= 1.56D-04

 Initial convergence to 1.0D-05 achieved.  Increase integral accuracy.
 Cycle   6  Pass 1  IDiag  1:
 E= -420.809879186643     Delta-E=        0.000006999525 Rises=F Damp=F
 DIIS: error= 9.24D-06 at cycle   1 NSaved=   1.
 NSaved= 1 IEnMin= 1 EnMin= -420.809879186643     IErMin= 1 ErrMin= 9.24D-06
 ErrMax= 9.24D-06  0.00D+00 EMaxC= 1.00D-01 BMatC= 2.77D-08 BMatP= 2.77D-08
 IDIUse=1 WtCom= 1.00D+00 WtEn= 0.00D+00
 Coeff-Com:  0.100D+01
 Coeff:      0.100D+01
 Gap=     0.215 Goal=   None    Shift=    0.000
 RMSDP=4.01D-06 MaxDP=1.43D-04 DE= 7.00D-06 OVMax= 8.23D-05

 Cycle   7  Pass 1  IDiag  1:
 RMSU=  5.24D-06    CP:  1.00D+00
 E= -420.809879168320     Delta-E=        0.000000018322 Rises=F Damp=F
 DIIS: error= 1.95D-05 at cycle   2 NSaved=   2.
 NSaved= 2 IEnMin= 1 EnMin= -420.809879186643     IErMin= 1 ErrMin= 9.24D-06
 ErrMax= 1.95D-05  0.00D+00 EMaxC= 1.00D-01 BMatC= 4.84D-08 BMatP= 2.77D-08
 IDIUse=1 WtCom= 1.00D+00 WtEn= 0.00D+00
 Coeff-Com:  0.584D+00 0.416D+00
 Coeff:      0.584D+00 0.416D+00
 Gap=     0.215 Goal=   None    Shift=    0.000
 RMSDP=1.82D-06 MaxDP=5.42D-05 DE= 1.83D-08 OVMax= 7.41D-05

 Cycle   8  Pass 1  IDiag  1:
 RMSU=  1.69D-06    CP:  1.00D+00  8.75D-01
 E= -420.809879205924     Delta-E=       -0.000000037604 Rises=F Damp=F
 DIIS: error= 6.19D-06 at cycle   3 NSaved=   3.
 NSaved= 3 IEnMin= 3 EnMin= -420.809879205924     IErMin= 3 ErrMin= 6.19D-06
 ErrMax= 6.19D-06  0.00D+00 EMaxC= 1.00D-01 BMatC= 5.69D-09 BMatP= 2.77D-08
 IDIUse=1 WtCom= 1.00D+00 WtEn= 0.00D+00
 Coeff-Com:  0.470D-01 0.255D+00 0.698D+00
 Coeff:      0.470D-01 0.255D+00 0.698D+00
 Gap=     0.215 Goal=   None    Shift=    0.000
 RMSDP=5.44D-07 MaxDP=1.81D-05 DE=-3.76D-08 OVMax= 3.00D-05

 Cycle   9  Pass 1  IDiag  1:
 RMSU=  2.74D-07    CP:  1.00D+00  9.18D-01  7.57D-01
 E= -420.809879210469     Delta-E=       -0.000000004544 Rises=F Damp=F
 DIIS: error= 2.53D-06 at cycle   4 NSaved=   4.
 NSaved= 4 IEnMin= 4 EnMin= -420.809879210469     IErMin= 4 ErrMin= 2.53D-06
 ErrMax= 2.53D-06  0.00D+00 EMaxC= 1.00D-01 BMatC= 5.64D-10 BMatP= 5.69D-09
 IDIUse=1 WtCom= 1.00D+00 WtEn= 0.00D+00
 Coeff-Com:  0.372D-02 0.138D+00 0.427D+00 0.431D+00
 Coeff:      0.372D-02 0.138D+00 0.427D+00 0.431D+00
 Gap=     0.215 Goal=   None    Shift=    0.000
 RMSDP=1.62D-07 MaxDP=5.32D-06 DE=-4.54D-09 OVMax= 8.42D-06

 Cycle  10  Pass 1  IDiag  1:
 RMSU=  1.03D-07    CP:  1.00D+00  9.19D-01  7.64D-01  5.47D-01
 E= -420.809879210893     Delta-E=       -0.000000000424 Rises=F Damp=F
 DIIS: error= 4.19D-07 at cycle   5 NSaved=   5.
 NSaved= 5 IEnMin= 5 EnMin= -420.809879210893     IErMin= 5 ErrMin= 4.19D-07
 ErrMax= 4.19D-07  0.00D+00 EMaxC= 1.00D-01 BMatC= 3.19D-11 BMatP= 5.64D-10
 IDIUse=1 WtCom= 1.00D+00 WtEn= 0.00D+00
 Coeff-Com: -0.528D-02 0.383D-01 0.135D+00 0.228D+00 0.604D+00
 Coeff:     -0.528D-02 0.383D-01 0.135D+00 0.228D+00 0.604D+00
 Gap=     0.215 Goal=   None    Shift=    0.000
 RMSDP=4.52D-08 MaxDP=7.44D-07 DE=-4.24D-10 OVMax= 2.28D-06

 Cycle  11  Pass 1  IDiag  1:
 RMSU=  3.29D-08    CP:  1.00D+00  9.19D-01  7.71D-01  6.27D-01  8.20D-01
 E= -420.809879210921     Delta-E=       -0.000000000028 Rises=F Damp=F
 DIIS: error= 1.68D-07 at cycle   6 NSaved=   6.
 NSaved= 6 IEnMin= 6 EnMin= -420.809879210921     IErMin= 6 ErrMin= 1.68D-07
 ErrMax= 1.68D-07  0.00D+00 EMaxC= 1.00D-01 BMatC= 2.29D-12 BMatP= 3.19D-11
 IDIUse=1 WtCom= 1.00D+00 WtEn= 0.00D+00
 Coeff-Com: -0.264D-02 0.956D-02 0.367D-01 0.788D-01 0.280D+00 0.597D+00
 Coeff:     -0.264D-02 0.956D-02 0.367D-01 0.788D-01 0.280D+00 0.597D+00
 Gap=     0.215 Goal=   None    Shift=    0.000
 RMSDP=1.66D-08 MaxDP=4.14D-07 DE=-2.77D-11 OVMax= 9.58D-07

 Cycle  12  Pass 1  IDiag  1:
 RMSU=  1.31D-08    CP:  1.00D+00  9.19D-01  7.69D-01  6.27D-01  9.01D-01
                    CP:  8.72D-01
 E= -420.809879210923     Delta-E=       -0.000000000003 Rises=F Damp=F
 DIIS: error= 9.06D-08 at cycle   7 NSaved=   7.
 NSaved= 7 IEnMin= 7 EnMin= -420.809879210923     IErMin= 7 ErrMin= 9.06D-08
 ErrMax= 9.06D-08  0.00D+00 EMaxC= 1.00D-01 BMatC= 6.90D-13 BMatP= 2.29D-12
 IDIUse=1 WtCom= 1.00D+00 WtEn= 0.00D+00
 Coeff-Com:  0.194D-03-0.740D-02-0.240D-01-0.313D-01-0.425D-01 0.376D+00
 Coeff-Com:  0.729D+00
 Coeff:      0.194D-03-0.740D-02-0.240D-01-0.313D-01-0.425D-01 0.376D+00
 Coeff:      0.729D+00
 Gap=     0.215 Goal=   None    Shift=    0.000
 RMSDP=8.14D-09 MaxDP=1.82D-07 DE=-2.61D-12 OVMax= 6.19D-07

 SCF Done:  E(RB3LYP) =  -420.809879211     A.U. after   12 cycles
            NFock= 12  Conv=0.81D-08     -V/T= 2.0093
 KE= 4.169320053942D+02 PE=-1.788772524397D+03 EE= 5.469217614044D+02
 Leave Link  502 at Mon Sep 21 10:05:28 2026, MaxMem=  3758096384 cpu:              36.6 elap:               4.7
 (Enter /opt/software/gaussian/16RevA.03/g16/l701.exe)
 ... and contract with generalized density number  0.
 Compute integral first derivatives.
 Leave Link  701 at Mon Sep 21 10:05:28 2026, MaxMem=  3758096384 cpu:               0.6 elap:               0.1
 (Enter /opt/software/gaussian/16RevA.03/g16/l702.exe)
 L702 exits ... SP integral derivatives will be done elsewhere.
 Leave Link  702 at Mon Sep 21 10:05:28 2026, MaxMem=  3758096384 cpu:               0.1 elap:               0.0
 (Enter /opt/software/gaussian/16RevA.03/g16/l703.exe)
 Integral derivatives from FoFJK, PRISM(SPDF).
 Compute integral first derivatives, UseDBF=F ICtDFT=           0.
 Calling FoFJK, ICntrl=      2127 FMM=F ISym2X=0 I1Cent= 0 IOpClX= 0 NMat=1 NMatS=1 NMatT=0.
 FoFJK:  IHMeth= 1 ICntrl=    2127 DoSepK=F KAlg= 0 I1Cent=           0 FoldK=F
 IRaf=         0 NMat=       1 IRICut=       1 DoRegI=T DoRafI=F ISym2E= 0 IDoP0=0 IntGTp=1.
 FoFCou: FMM=F IPFlag=           0 FMFlag=      100000 FMFlg1=         800
         NFxFlg=           0 DoJE=F BraDBF=F KetDBF=F FulRan=T
         wScrn=  0.000000 ICntrl=      2127 IOpCl=  0 I1Cent=           0 NGrid=           0
         NMat0=    1 NMatS0=      1 NMatT0=    0 NMatD0=    1 NMtDS0=    0 NMtDT0=    0
 Symmetry not used in FoFCou.
 Leave Link  703 at Mon Sep 21 10:05:29 2026, MaxMem=  3758096384 cpu:               9.5 elap:               1.2
 (Enter /opt/software/gaussian/16RevA.03/g16/l716.exe)
 Dipole        =-1.62320155D+00 9.79740558D-01 1.03691949D-02
 ***** Axes restored to original set *****
 -------------------------------------------------------------------
 Center     Atomic                   Forces (Hartrees/Bohr)
 Number     Number              X              Y              Z
 -------------------------------------------------------------------
      1        6           0.001094472   -0.000251847    0.000012553
      2        6          -0.000355199    0.000133121   -0.000020494
      3        6          -0.000099753   -0.000045811   -0.000022842
      4        1          -0.000010327   -0.000066239   -0.000014065
      5        6          -0.001504203    0.000161998    0.000611748
      6        6           0.000293870    0.000001351   -0.000010617
      7        1          -0.000478953   -0.000189282    0.000050808
      8        6           0.004891719    0.000594436   -0.002493353
      9        6          -0.000186559   -0.000575533    0.000067161
     10        1          -0.000035159   -0.000077447   -0.000001885
     11        1          -0.000063689   -0.000061301    0.000008269
     12        1          -0.000078573   -0.000616929    0.000138981
     13        8          -0.001518970    0.000919974    0.000946236
     14        1           0.000565574    0.000563364   -0.000068172
     15        8          -0.002514252   -0.000489855    0.000795672
 -------------------------------------------------------------------
 Cartesian Forces:  Max     0.004891719 RMS     0.001028663
 Leave Link  716 at Mon Sep 21 10:05:29 2026, MaxMem=  3758096384 cpu:               0.2 elap:               0.0
 (Enter /opt/software/gaussian/16RevA.03/g16/l103.exe)

 GradGradGradGradGradGradGradGradGradGradGradGradGradGradGradGradGradGrad
 Berny optimization.
 Using GEDIIS/GDIIS optimizer.
 FormGI is forming the generalized inverse of G from B-inverse, IUseBI=4.
 Internal  Forces:  Max     0.002082669 RMS     0.000649514
 Search for a local minimum.
 Step number   5 out of a maximum of   77
 All quantities printed in internal units (Hartrees-Bohrs-Radians)
 RMS Force = .64951D-03 SwitMx=.10000D-02 MixMth= 2
 Mixed Optimization -- En-DIIS/RFO-DIIS
 Swapping is turned off.
 Update second derivatives using D2CorX and points    1    2    3    4    5
 DE= -1.36D-04 DEPred=-2.32D-04 R= 5.86D-01
 TightC=F SS=  1.41D+00  RLast= 9.61D-02 DXNew= 4.2426D-01 2.8832D-01
 Trust test= 5.86D-01 RLast= 9.61D-02 DXMaxT set to 2.88D-01
 ITU=  1 -1  1  1  0
     Eigenvalues ---    0.00675   0.01646   0.02083   0.02110   0.02135
     Eigenvalues ---    0.02156   0.02177   0.02182   0.02186   0.02193
     Eigenvalues ---    0.02896   0.06464   0.15257   0.16000   0.16000
     Eigenvalues ---    0.16014   0.16263   0.16893   0.21779   0.22022
     Eigenvalues ---    0.22404   0.23691   0.25002   0.30110   0.32268
     Eigenvalues ---    0.35102   0.35105   0.35108   0.35126   0.35398
     Eigenvalues ---    0.41713   0.43051   0.43607   0.46445   0.46634
     Eigenvalues ---    0.47163   0.50882   0.53592   0.97771
 En-DIIS/RFO-DIIS/Sim-DIIS IScMMF=       -3 using points:     5    4    3
 RFO step:  Lambda=-1.13138811D-04.
 NNeg= 0 NGDIIS= 3 SimSw=  2.50D-03 Rises=F DC= -1.36D-04 SmlDif=  1.00D-05
 NRisDI= 0 DoIntr=F SqrtH=F CThrHd= 10.0 CDAdj=  3.0
 RMS Error=  0.3344253529D-02 NUsed= 3 OKEnD=T EnDIS=F
 InvSVX:  RCond= 7.57D-04 Info=           0 Equed=N FErr=  1.99D-15 BErr=  9.60D-17
 DidBck=T Rises=F RFO-DIIS coefs:    0.60802    0.20158    0.19039
 Iteration  1 RMS(Cart)=  0.00618598 RMS(Int)=  0.00004449
 Iteration  2 RMS(Cart)=  0.00003483 RMS(Int)=  0.00002978
 Iteration  3 RMS(Cart)=  0.00000000 RMS(Int)=  0.00002978
 ITry= 1 IFail=0 DXMaxC= 2.70D-02 DCOld= 1.00D+10 DXMaxT= 2.88D-01 DXLimC= 3.00D+00 Rises=F
 Variable       Old X    -DE/DX   Delta X   Delta X   Delta X     New X
                                 (Linear)    (Quad)   (Total)
    R1        2.62950   0.00011   0.00071  -0.00001   0.00070   2.63020
    R2        2.65183  -0.00009  -0.00120   0.00008  -0.00113   2.65071
    R3        2.04928   0.00007  -0.00007   0.00024   0.00016   2.04945
    R4        2.05288   0.00001  -0.00005   0.00006   0.00001   2.05289
    R5        2.64038  -0.00015  -0.00018  -0.00032  -0.00050   2.63987
    R6        2.63783  -0.00037   0.00028  -0.00064  -0.00036   2.63747
    R7        2.63494   0.00011  -0.00016   0.00018   0.00002   2.63495
    R8        2.05245   0.00005   0.00005   0.00010   0.00015   2.05259
    R9        2.83426   0.00208   0.00398   0.00258   0.00656   2.84082
   R10        2.64813   0.00124   0.00105   0.00127   0.00232   2.65045
   R11        2.05297   0.00008   0.00008   0.00013   0.00021   2.05318
   R12        2.28247   0.00160   0.00177   0.00057   0.00234   2.28481
   R13        2.57658  -0.00200  -0.00665  -0.00166  -0.00831   2.56828
   R14        2.05716  -0.00008   0.00039  -0.00030   0.00009   2.05725
   R15        1.83247  -0.00029   0.00001  -0.00028  -0.00027   1.83220
    A1        2.10205   0.00057   0.00085   0.00115   0.00200   2.10406
    A2        2.12338  -0.00081  -0.00317  -0.00203  -0.00521   2.11817
    A3        2.05775   0.00024   0.00233   0.00088   0.00320   2.06096
    A4        2.09120   0.00004  -0.00055   0.00040  -0.00015   2.09105
    A5        2.09555   0.00005   0.00017  -0.00008   0.00009   2.09564
    A6        2.09643  -0.00009   0.00038  -0.00031   0.00006   2.09650
    A7        2.09429   0.00013   0.00017   0.00024   0.00041   2.09470
    A8        2.09896  -0.00014  -0.00003  -0.00044  -0.00048   2.09849
    A9        2.08993   0.00001  -0.00014   0.00021   0.00007   2.09000
   A10        2.03473  -0.00047   0.00097  -0.00078   0.00019   2.03492
   A11        2.07892  -0.00093  -0.00114  -0.00169  -0.00283   2.07609
   A12        2.16953   0.00140   0.00017   0.00247   0.00264   2.17217
   A13        2.09324  -0.00007  -0.00067  -0.00018  -0.00084   2.09240
   A14        2.09692   0.00001   0.00036  -0.00002   0.00035   2.09727
   A15        2.09302   0.00006   0.00031   0.00019   0.00050   2.09352
   A16        2.15095  -0.00193  -0.00462  -0.00302  -0.00750   2.14345
   A17        2.05390   0.00185   0.00222   0.00308   0.00544   2.05934
   A18        2.07823   0.00008   0.00210  -0.00007   0.00217   2.08040
   A19        2.10232   0.00025   0.00063   0.00056   0.00118   2.10350
   A20        2.05798  -0.00077  -0.00126  -0.00217  -0.00342   2.05456
   A21        2.12289   0.00051   0.00063   0.00161   0.00224   2.12513
   A22        1.93219   0.00137   0.00425   0.00301   0.00726   1.93945
    D1        3.14144   0.00003   0.00031   0.00033   0.00064  -3.14111
    D2        0.00001   0.00003   0.00023   0.00043   0.00066   0.00066
    D3        0.00021  -0.00001  -0.00008   0.00007  -0.00001   0.00020
    D4       -3.14122  -0.00000  -0.00016   0.00017   0.00001  -3.14122
    D5       -3.14087  -0.00004  -0.00071  -0.00010  -0.00081   3.14150
    D6       -0.00037  -0.00006  -0.00038  -0.00060  -0.00099  -0.00136
    D7        0.00037  -0.00001  -0.00033   0.00015  -0.00019   0.00019
    D8        3.14087  -0.00002  -0.00001  -0.00035  -0.00036   3.14051
    D9        0.00026   0.00000   0.00002   0.00003   0.00005   0.00031
   D10        3.14148  -0.00001   0.00006  -0.00015  -0.00009   3.14139
   D11       -3.14117   0.00000  -0.00006   0.00013   0.00007  -3.14110
   D12        0.00005  -0.00001  -0.00003  -0.00005  -0.00007  -0.00002
   D13       -0.00016  -0.00001  -0.00010  -0.00031  -0.00041  -0.00057
   D14       -3.14138  -0.00000  -0.00014  -0.00013  -0.00027   3.14153
   D15        3.14084  -0.00002  -0.00002  -0.00036  -0.00038   3.14046
   D16       -0.00038  -0.00001  -0.00006  -0.00018  -0.00024  -0.00062
   D17       -0.00021  -0.00001  -0.00005   0.00012   0.00007  -0.00014
   D18        3.13946  -0.00004   0.00017  -0.00073  -0.00056   3.13890
   D19       -3.14122  -0.00001  -0.00013   0.00017   0.00004  -3.14118
   D20       -0.00155  -0.00003   0.00009  -0.00068  -0.00058  -0.00213
   D21        0.00623   0.00058   0.00643   0.00509   0.01152   0.01775
   D22       -3.11933  -0.00041  -0.00972   0.00603  -0.00370  -3.12303
   D23       -3.13421   0.00060   0.00608   0.00562   0.01171  -3.12250
   D24        0.02342  -0.00039  -0.01007   0.00656  -0.00351   0.01991
   D25        0.00047   0.00005   0.00029   0.00033   0.00062   0.00110
   D26       -3.13912   0.00007   0.00006   0.00122   0.00128  -3.13784
   D27        3.14088   0.00003   0.00065  -0.00021   0.00044   3.14132
   D28        0.00129   0.00006   0.00042   0.00067   0.00109   0.00238
   D29        0.00005   0.00047   0.00696   0.00106   0.00801   0.00806
   D30       -3.12620  -0.00046  -0.00854   0.00199  -0.00654  -3.13274
         Item               Value     Threshold  Converged?
 Maximum Force            0.002083     0.000450     NO 
 RMS     Force            0.000650     0.000300     NO 
 Maximum Displacement     0.026958     0.001800     NO 
 RMS     Displacement     0.006181     0.001200     NO 
 Predicted change in Energy=-5.661331D-05
 Lowest energy point so far.  Saving SCF results.
 GradGradGradGradGradGradGradGradGradGradGradGradGradGradGradGradGradGrad

 Leave Link  103 at Mon Sep 21 10:05:29 2026, MaxMem=  3758096384 cpu:               0.7 elap:               0.1
 (Enter /opt/software/gaussian/16RevA.03/g16/l202.exe)
                          Input orientation:                          
 ---------------------------------------------------------------------
 Center     Atomic      Atomic             Coordinates (Angstroms)
 Number     Number       Type             X           Y           Z
 ---------------------------------------------------------------------
      1          6           0       -0.844253    2.006728    0.023567
      2          6           0       -1.511848    0.788604    0.111371
      3          6           0        0.601212   -0.379247   -0.004981
      4          1           0       -2.595114    0.771004    0.191158
      5          6           0        0.553970    2.047660   -0.080588
      6          6           0       -0.790450   -0.407592    0.097107
      7          1           0       -1.383284    2.947758    0.033058
      8          6           0        1.182494    3.410312   -0.170231
      9          6           0        1.269436    0.841376   -0.093225
     10          1           0        1.167831   -1.305870   -0.015529
     11          1           0       -1.310021   -1.359333    0.165752
     12          1           0        2.355242    0.819900   -0.168859
     13          8           0        0.537784    4.432622   -0.137286
     14          1           0        2.930540    2.598008   -0.316255
     15          8           0        2.533969    3.482481   -0.294293
 ---------------------------------------------------------------------
                    Distance matrix (angstroms):
                    1          2          3          4          5
     1  C    0.000000
     2  C    1.391840   0.000000
     3  C    2.789813   2.417112   0.000000
     4  H    2.149562   1.086343   3.402652   0.000000
     5  C    1.402694   2.426865   2.428544   3.408875   0.000000
     6  C    2.416038   1.396962   1.395689   2.157486   2.804871
     7  H    1.084520   2.164396   3.874098   2.496355   2.139170
     8  C    2.472915   3.769898   3.837441   4.622432   1.503296
     9  C    2.416478   2.789299   1.394357   3.875639   1.402559
    10  H    3.875991   3.403469   1.086185   4.303008   3.409870
    11  H    3.401106   2.158083   2.154653   2.488060   3.891369
    12  H    3.417946   3.877357   2.131064   4.963671   2.181689
    13  O    2.796581   4.188280   4.814105   4.830153   2.385691
    14  H    3.835903   4.815767   3.792981   5.841940   2.450817
    15  O    3.700171   4.877517   4.328070   5.821964   2.454542
                    6          7          8          9         10
     6  C    0.000000
     7  H    3.407921   0.000000
     8  C    4.305853   2.615053   0.000000
     9  C    2.416460   3.389649   2.571560   0.000000
    10  H    2.157418   4.960232   4.718741   2.151052   0.000000
    11  H    1.086498   4.309758   5.392127   3.400558   2.485050
    12  H    3.387160   4.306406   2.843515   1.088649   2.439744
    13  O    5.024621   2.433997   1.209072   3.665283   5.774259
    14  H    4.801069   4.342053   1.933087   2.427913   4.293930
    15  O    5.132019   3.967109   1.359074   2.935115   4.987218
                   11         12         13         14         15
    11  H    0.000000
    12  H    4.277286   0.000000
    13  O    6.087114   4.044244   0.000000
    14  H    5.820244   1.874663   3.020450   0.000000
    15  O    6.199279   2.671519   2.216342   0.969558   0.000000
 Stoichiometry    C7H6O2
 Framework group  C1[X(C7H6O2)]
 Deg. of freedom    39
 Full point group                 C1      NOp   1
 RotChk:  IX=0 Diff= 1.16D-03
 Largest Abelian subgroup         C1      NOp   1
 Largest concise Abelian subgroup C1      NOp   1
                         Standard orientation:                         
 ---------------------------------------------------------------------
 Center     Atomic      Atomic             Coordinates (Angstroms)
 Number     Number       Type             X           Y           Z
 ---------------------------------------------------------------------
      1          6           0       -0.486677   -1.209447    0.005887
      2          6           0       -1.878468   -1.197956    0.007365
      3          6           0       -1.859752    1.219043   -0.006727
      4          1           0       -2.426251   -2.136062    0.013119
      5          6           0        0.236315   -0.007454   -0.000924
      6          6           0       -2.568451    0.016699    0.001250
      7          1           0        0.070099   -2.140127    0.010194
      8          6           0        1.735112   -0.123673   -0.001875
      9          6           0       -0.465447    1.206898   -0.007892
     10          1           0       -2.390479    2.166720   -0.012573
     11          1           0       -3.654896    0.027443    0.002204
     12          1           0        0.049262    2.166144   -0.016803
     13          8           0        2.309738   -1.187385   -0.015126
     14          1           0        1.887800    1.803086    0.031421
     15          8           0        2.463846    1.023402    0.013866
 ---------------------------------------------------------------------
 Rotational constants (GHZ):           3.8438634           1.2144330           0.9228996
 Leave Link  202 at Mon Sep 21 10:05:30 2026, MaxMem=  3758096384 cpu:               0.3 elap:               0.1
 (Enter /opt/software/gaussian/16RevA.03/g16/l301.exe)
 Standard basis: 6-31G(d) (6D, 7F)
 Ernie: Thresh=  0.10000D-02 Tol=  0.10000D-05 Strict=F.
 There are   147 symmetry adapted cartesian basis functions of A   symmetry.
 There are   147 symmetry adapted basis functions of A   symmetry.
   147 basis functions,   276 primitive gaussians,   147 cartesian basis functions
    32 alpha electrons       32 beta electrons
       nuclear repulsion energy       403.9538919903 Hartrees.
 IExCor=  402 DFT=T Ex+Corr=B3LYP ExCW=0 ScaHFX=  0.200000
 ScaDFX=  0.800000  0.720000  1.000000  0.810000 ScalE2=  1.000000  1.000000
 IRadAn=      5 IRanWt=     -1 IRanGd=            0 ICorTp=0 IEmpDi=  4
 NAtoms=   15 NActive=   15 NUniq=   15 SFac= 1.00D+00 NAtFMM=   60 NAOKFM=F Big=F
 Integral buffers will be    131072 words long.
 Raffenetti 2 integral format.
 Two-electron integral symmetry is turned on.
 Leave Link  301 at Mon Sep 21 10:05:30 2026, MaxMem=  3758096384 cpu:               0.5 elap:               0.1
 (Enter /opt/software/gaussian/16RevA.03/g16/l302.exe)
 NPDir=0 NMtPBC=     1 NCelOv=     1 NCel=       1 NClECP=     1 NCelD=      1
         NCelK=      1 NCelE2=     1 NClLst=     1 CellRange=     0.0.
 One-electron integrals computed using PRISM.
 One-electron integral symmetry used in STVInt
 NBasis=   147 RedAO= T EigKep=  4.68D-04  NBF=   147
 NBsUse=   147 1.00D-06 EigRej= -1.00D+00 NBFU=   147
 Precomputing XC quadrature grid using
 IXCGrd= 4 IRadAn=           5 IRanWt=          -1 IRanGd=           0 AccXCQ= 0.00D+00.
 Generated NRdTot=       0 NPtTot=           0 NUsed=           0 NTot=          32
 NSgBfM=   147   147   147   147   147 MxSgAt=    15 MxSgA2=    15.
 Leave Link  302 at Mon Sep 21 10:05:30 2026, MaxMem=  3758096384 cpu:               1.1 elap:               0.1
 (Enter /opt/software/gaussian/16RevA.03/g16/l303.exe)
 DipDrv:  MaxL=1.
 Leave Link  303 at Mon Sep 21 10:05:30 2026, MaxMem=  3758096384 cpu:               0.2 elap:               0.0
 (Enter /opt/software/gaussian/16RevA.03/g16/l401.exe)
 Initial guess from the checkpoint file:  "job.chk"
 B after Tr=     0.000000   -0.000000   -0.000000
         Rot=    1.000000   -0.000004   -0.000009    0.000013 Ang=  -0.00 deg.
 Guess basis will be translated and rotated to current coordinates.
 JPrj=2 DoOrth=T DoCkMO=T.
 Generating alternative initial guess.
 ExpMin= 1.61D-01 ExpMax= 5.48D+03 ExpMxC= 8.25D+02 IAcc=2 IRadAn=         4 AccDes= 0.00D+00
 Harris functional with IExCor=  402 and IRadAn=       4 diagonalized for initial guess.
 HarFok:  IExCor=  402 AccDes= 0.00D+00 IRadAn=         4 IDoV= 1 UseB2=F ITyADJ=14
 ICtDFT=  3500011 ScaDFX=  1.000000  1.000000  1.000000  1.000000
 FoFCou: FMM=F IPFlag=           0 FMFlag=      100000 FMFlg1=           0
         NFxFlg=           0 DoJE=T BraDBF=F KetDBF=T FulRan=T
         wScrn=  0.000000 ICntrl=       500 IOpCl=  0 I1Cent=   200000004 NGrid=           0
         NMat0=    1 NMatS0=      1 NMatT0=    0 NMatD0=    1 NMtDS0=    0 NMtDT0=    0
 Petite list used in FoFCou.
 Harris En= -420.838404456121    
 Leave Link  401 at Mon Sep 21 10:05:30 2026, MaxMem=  3758096384 cpu:               2.4 elap:               0.3
 (Enter /opt/software/gaussian/16RevA.03/g16/l502.exe)
 Integral symmetry usage will be decided dynamically.
 Closed shell SCF:
 Using DIIS extrapolation, IDIIS=  1040.
 NGot=  3758096384 LenX=  3758050306 LenY=  3758028256
 Requested convergence on RMS density matrix=1.00D-08 within 128 cycles.
 Requested convergence on MAX density matrix=1.00D-06.
 Requested convergence on             energy=1.00D-06.
 No special actions if energy rises.
 Fock matrices will be formed incrementally for  20 cycles.
 Integral accuracy reduced to 1.0D-05 until final iterations.

 Cycle   1  Pass 0  IDiag  1:
 FoFJK:  IHMeth= 1 ICntrl=       0 DoSepK=F KAlg= 0 I1Cent=           0 FoldK=F
 IRaf= 940000000 NMat=       1 IRICut=       1 DoRegI=T DoRafI=F ISym2E= 0 IDoP0=0 IntGTp=1.
 FoFCou: FMM=F IPFlag=           0 FMFlag=      100000 FMFlg1=           0
         NFxFlg=           0 DoJE=F BraDBF=F KetDBF=F FulRan=T
         wScrn=  0.000000 ICntrl=         0 IOpCl=  0 I1Cent=           0 NGrid=           0
         NMat0=    1 NMatS0=      1 NMatT0=    0 NMatD0=    1 NMtDS0=    0 NMtDT0=    0
 Symmetry not used in FoFCou.
 E= -420.809816175109    
 DIIS: error= 4.56D-04 at cycle   1 NSaved=   1.
 NSaved= 1 IEnMin= 1 EnMin= -420.809816175109     IErMin= 1 ErrMin= 4.56D-04
 ErrMax= 4.56D-04  0.00D+00 EMaxC= 1.00D-01 BMatC= 7.89D-05 BMatP= 7.89D-05
 IDIUse=3 WtCom= 9.95D-01 WtEn= 4.56D-03
 Coeff-Com:  0.100D+01
 Coeff-En:   0.100D+01
 Coeff:      0.100D+01
 Gap=     1.913 Goal=   None    Shift=    0.000
 RMSDP=1.37D-04 MaxDP=2.82D-03              OVMax= 3.03D-03

 Cycle   2  Pass 0  IDiag  1:
 RMSU=  1.37D-04    CP:  1.00D+00
 E= -420.809936911079     Delta-E=       -0.000120735971 Rises=F Damp=F
 DIIS: error= 1.83D-04 at cycle   2 NSaved=   2.
 NSaved= 2 IEnMin= 2 EnMin= -420.809936911079     IErMin= 2 ErrMin= 1.83D-04
 ErrMax= 1.83D-04  0.00D+00 EMaxC= 1.00D-01 BMatC= 6.29D-06 BMatP= 7.89D-05
 IDIUse=3 WtCom= 9.98D-01 WtEn= 1.83D-03
 Coeff-Com:  0.557D-01 0.944D+00
 Coeff-En:   0.000D+00 0.100D+01
 Coeff:      0.556D-01 0.944D+00
 Gap=     0.215 Goal=   None    Shift=    0.000
 RMSDP=3.86D-05 MaxDP=1.09D-03 DE=-1.21D-04 OVMax= 1.77D-03

 Cycle   3  Pass 0  IDiag  1:
 RMSU=  3.85D-05    CP:  1.00D+00  9.84D-01
 E= -420.809928588916     Delta-E=        0.000008322163 Rises=F Damp=F
 DIIS: error= 3.96D-04 at cycle   3 NSaved=   3.
 NSaved= 3 IEnMin= 2 EnMin= -420.809936911079     IErMin= 2 ErrMin= 1.83D-04
 ErrMax= 3.96D-04  0.00D+00 EMaxC= 1.00D-01 BMatC= 1.67D-05 BMatP= 6.29D-06
 IDIUse=3 WtCom= 3.34D-01 WtEn= 6.66D-01
 Coeff-Com: -0.425D-01 0.646D+00 0.396D+00
 Coeff-En:   0.000D+00 0.688D+00 0.312D+00
 Coeff:     -0.142D-01 0.674D+00 0.340D+00
 Gap=     0.215 Goal=   None    Shift=    0.000
 RMSDP=2.35D-05 MaxDP=6.41D-04 DE= 8.32D-06 OVMax= 1.11D-03

 Cycle   4  Pass 0  IDiag  1:
 RMSU=  7.21D-06    CP:  1.00D+00  1.02D+00  4.38D-01
 E= -420.809942363754     Delta-E=       -0.000013774838 Rises=F Damp=F
 DIIS: error= 2.94D-05 at cycle   4 NSaved=   4.
 NSaved= 4 IEnMin= 4 EnMin= -420.809942363754     IErMin= 4 ErrMin= 2.94D-05
 ErrMax= 2.94D-05  0.00D+00 EMaxC= 1.00D-01 BMatC= 1.60D-07 BMatP= 6.29D-06
 IDIUse=1 WtCom= 1.00D+00 WtEn= 0.00D+00
 Coeff-Com: -0.190D-01 0.237D+00 0.104D+00 0.678D+00
 Coeff:     -0.190D-01 0.237D+00 0.104D+00 0.678D+00
 Gap=     0.215 Goal=   None    Shift=    0.000
 RMSDP=4.11D-06 MaxDP=9.58D-05 DE=-1.38D-05 OVMax= 1.45D-04

 Initial convergence to 1.0D-05 achieved.  Increase integral accuracy.
 Cycle   5  Pass 1  IDiag  1:
 E= -420.809935980465     Delta-E=        0.000006383289 Rises=F Damp=F
 DIIS: error= 2.57D-05 at cycle   1 NSaved=   1.
 NSaved= 1 IEnMin= 1 EnMin= -420.809935980465     IErMin= 1 ErrMin= 2.57D-05
 ErrMax= 2.57D-05  0.00D+00 EMaxC= 1.00D-01 BMatC= 9.01D-08 BMatP= 9.01D-08
 IDIUse=1 WtCom= 1.00D+00 WtEn= 0.00D+00
 Coeff-Com:  0.100D+01
 Coeff:      0.100D+01
 Gap=     0.215 Goal=   None    Shift=    0.000
 RMSDP=4.11D-06 MaxDP=9.58D-05 DE= 6.38D-06 OVMax= 1.90D-04

 Cycle   6  Pass 1  IDiag  1:
 RMSU=  6.81D-06    CP:  1.00D+00
 E= -420.809935792273     Delta-E=        0.000000188192 Rises=F Damp=F
 DIIS: error= 5.30D-05 at cycle   2 NSaved=   2.
 NSaved= 2 IEnMin= 1 EnMin= -420.809935980465     IErMin= 1 ErrMin= 2.57D-05
 ErrMax= 5.30D-05  0.00D+00 EMaxC= 1.00D-01 BMatC= 3.19D-07 BMatP= 9.01D-08
 IDIUse=1 WtCom= 1.00D+00 WtEn= 0.00D+00
 Coeff-Com:  0.660D+00 0.340D+00
 Coeff:      0.660D+00 0.340D+00
 Gap=     0.215 Goal=   None    Shift=    0.000
 RMSDP=3.62D-06 MaxDP=1.24D-04 DE= 1.88D-07 OVMax= 1.54D-04

 Cycle   7  Pass 1  IDiag  1:
 RMSU=  2.52D-06    CP:  1.00D+00  6.20D-01
 E= -420.809936047984     Delta-E=       -0.000000255711 Rises=F Damp=F
 DIIS: error= 7.10D-06 at cycle   3 NSaved=   3.
 NSaved= 3 IEnMin= 3 EnMin= -420.809936047984     IErMin= 3 ErrMin= 7.10D-06
 ErrMax= 7.10D-06  0.00D+00 EMaxC= 1.00D-01 BMatC= 4.66D-09 BMatP= 9.01D-08
 IDIUse=1 WtCom= 1.00D+00 WtEn= 0.00D+00
 Coeff-Com:  0.223D+00 0.153D+00 0.624D+00
 Coeff:      0.223D+00 0.153D+00 0.624D+00
 Gap=     0.215 Goal=   None    Shift=    0.000
 RMSDP=6.30D-07 MaxDP=1.95D-05 DE=-2.56D-07 OVMax= 3.79D-05

 Cycle   8  Pass 1  IDiag  1:
 RMSU=  5.37D-07    CP:  1.00D+00  6.55D-01  9.09D-01
 E= -420.809936050082     Delta-E=       -0.000000002098 Rises=F Damp=F
 DIIS: error= 4.58D-06 at cycle   4 NSaved=   4.
 NSaved= 4 IEnMin= 4 EnMin= -420.809936050082     IErMin= 4 ErrMin= 4.58D-06
 ErrMax= 4.58D-06  0.00D+00 EMaxC= 1.00D-01 BMatC= 2.16D-09 BMatP= 4.66D-09
 IDIUse=1 WtCom= 1.00D+00 WtEn= 0.00D+00
 Coeff-Com: -0.278D-02 0.261D-01 0.437D+00 0.540D+00
 Coeff:     -0.278D-02 0.261D-01 0.437D+00 0.540D+00
 Gap=     0.215 Goal=   None    Shift=    0.000
 RMSDP=2.50D-07 MaxDP=9.65D-06 DE=-2.10D-09 OVMax= 1.40D-05

 Cycle   9  Pass 1  IDiag  1:
 RMSU=  5.82D-08    CP:  1.00D+00  6.54D-01  9.33D-01  5.62D-01
 E= -420.809936051735     Delta-E=       -0.000000001653 Rises=F Damp=F
 DIIS: error= 3.11D-07 at cycle   5 NSaved=   5.
 NSaved= 5 IEnMin= 5 EnMin= -420.809936051735     IErMin= 5 ErrMin= 3.11D-07
 ErrMax= 3.11D-07  0.00D+00 EMaxC= 1.00D-01 BMatC= 1.77D-11 BMatP= 2.16D-09
 IDIUse=1 WtCom= 1.00D+00 WtEn= 0.00D+00
 Coeff-Com: -0.345D-02 0.124D-01 0.227D+00 0.286D+00 0.478D+00
 Coeff:     -0.345D-02 0.124D-01 0.227D+00 0.286D+00 0.478D+00
 Gap=     0.215 Goal=   None    Shift=    0.000
 RMSDP=3.64D-08 MaxDP=1.14D-06 DE=-1.65D-09 OVMax= 2.20D-06

 Cycle  10  Pass 1  IDiag  1:
 RMSU=  2.93D-08    CP:  1.00D+00  6.53D-01  9.35D-01  5.64D-01  6.40D-01
 E= -420.809936051751     Delta-E=       -0.000000000016 Rises=F Damp=F
 DIIS: error= 1.27D-07 at cycle   6 NSaved=   6.
 NSaved= 6 IEnMin= 6 EnMin= -420.809936051751     IErMin= 6 ErrMin= 1.27D-07
 ErrMax= 1.27D-07  0.00D+00 EMaxC= 1.00D-01 BMatC= 2.02D-12 BMatP= 1.77D-11
 IDIUse=1 WtCom= 1.00D+00 WtEn= 0.00D+00
 Coeff-Com: -0.110D-02 0.185D-02 0.401D-01 0.516D-01 0.264D+00 0.644D+00
 Coeff:     -0.110D-02 0.185D-02 0.401D-01 0.516D-01 0.264D+00 0.644D+00
 Gap=     0.215 Goal=   None    Shift=    0.000
 RMSDP=1.32D-08 MaxDP=2.50D-07 DE=-1.63D-11 OVMax= 7.73D-07

 Cycle  11  Pass 1  IDiag  1:
 RMSU=  7.95D-09    CP:  1.00D+00  6.54D-01  9.34D-01  5.63D-01  7.71D-01
                    CP:  7.53D-01
 E= -420.809936051756     Delta-E=       -0.000000000005 Rises=F Damp=F
 DIIS: error= 3.23D-08 at cycle   7 NSaved=   7.
 NSaved= 7 IEnMin= 7 EnMin= -420.809936051756     IErMin= 7 ErrMin= 3.23D-08
 ErrMax= 3.23D-08  0.00D+00 EMaxC= 1.00D-01 BMatC= 1.77D-13 BMatP= 2.02D-12
 IDIUse=1 WtCom= 1.00D+00 WtEn= 0.00D+00
 Coeff-Com: -0.263D-03-0.218D-03-0.428D-03 0.291D-03 0.893D-01 0.324D+00
 Coeff-Com:  0.587D+00
 Coeff:     -0.263D-03-0.218D-03-0.428D-03 0.291D-03 0.893D-01 0.324D+00
 Coeff:      0.587D+00
 Gap=     0.215 Goal=   None    Shift=    0.000
 RMSDP=4.05D-09 MaxDP=8.37D-08 DE=-4.66D-12 OVMax= 2.21D-07

 SCF Done:  E(RB3LYP) =  -420.809936052     A.U. after   11 cycles
            NFock= 11  Conv=0.41D-08     -V/T= 2.0093
 KE= 4.169258663987D+02 PE=-1.788467058279D+03 EE= 5.467773638384D+02
 Leave Link  502 at Mon Sep 21 10:05:35 2026, MaxMem=  3758096384 cpu:              34.6 elap:               4.4
 (Enter /opt/software/gaussian/16RevA.03/g16/l701.exe)
 ... and contract with generalized density number  0.
 Compute integral first derivatives.
 Leave Link  701 at Mon Sep 21 10:05:35 2026, MaxMem=  3758096384 cpu:               0.6 elap:               0.1
 (Enter /opt/software/gaussian/16RevA.03/g16/l702.exe)
 L702 exits ... SP integral derivatives will be done elsewhere.
 Leave Link  702 at Mon Sep 21 10:05:35 2026, MaxMem=  3758096384 cpu:               0.1 elap:               0.0
 (Enter /opt/software/gaussian/16RevA.03/g16/l703.exe)
 Integral derivatives from FoFJK, PRISM(SPDF).
 Compute integral first derivatives, UseDBF=F ICtDFT=           0.
 Calling FoFJK, ICntrl=      2127 FMM=F ISym2X=0 I1Cent= 0 IOpClX= 0 NMat=1 NMatS=1 NMatT=0.
 FoFJK:  IHMeth= 1 ICntrl=    2127 DoSepK=F KAlg= 0 I1Cent=           0 FoldK=F
 IRaf=         0 NMat=       1 IRICut=       1 DoRegI=T DoRafI=F ISym2E= 0 IDoP0=0 IntGTp=1.
 FoFCou: FMM=F IPFlag=           0 FMFlag=      100000 FMFlg1=         800
         NFxFlg=           0 DoJE=F BraDBF=F KetDBF=F FulRan=T
         wScrn=  0.000000 ICntrl=      2127 IOpCl=  0 I1Cent=           0 NGrid=           0
         NMat0=    1 NMatS0=      1 NMatT0=    0 NMatD0=    1 NMtDS0=    0 NMtDT0=    0
 Symmetry not used in FoFCou.
 Leave Link  703 at Mon Sep 21 10:05:36 2026, MaxMem=  3758096384 cpu:               9.4 elap:               1.2
 (Enter /opt/software/gaussian/16RevA.03/g16/l716.exe)
 Dipole        =-1.60110109D+00 9.97670426D-01 1.87112678D-02
 ***** Axes restored to original set *****
 -------------------------------------------------------------------
 Center     Atomic                   Forces (Hartrees/Bohr)
 Number     Number              X              Y              Z
 -------------------------------------------------------------------
      1        6           0.000035103   -0.000076647   -0.000024354
      2        6          -0.000069629    0.000139446   -0.000001694
      3        6          -0.000083149   -0.000018754    0.000006951
      4        1           0.000004463   -0.000012497   -0.000004259
      5        6           0.000062684    0.000049001   -0.000011467
      6        6           0.000103769   -0.000064261    0.000002224
      7        1          -0.000047167   -0.000019210    0.000016537
      8        6           0.000060001    0.000112459   -0.000043978
      9        6           0.000002598    0.000063330   -0.000008580
     10        1           0.000010383    0.000001446    0.000001262
     11        1          -0.000017880   -0.000009780   -0.000001222
     12        1           0.000032701   -0.000002719    0.000060113
     13        8          -0.000092885   -0.000016820    0.000038047
     14        1           0.000034857   -0.000055222   -0.000106476
     15        8          -0.000035848   -0.000089773    0.000076897
 -------------------------------------------------------------------
 Cartesian Forces:  Max     0.000139446 RMS     0.000054251
 Leave Link  716 at Mon Sep 21 10:05:36 2026, MaxMem=  3758096384 cpu:               0.2 elap:               0.0
 (Enter /opt/software/gaussian/16RevA.03/g16/l103.exe)

 GradGradGradGradGradGradGradGradGradGradGradGradGradGradGradGradGradGrad
 Berny optimization.
 Using GEDIIS/GDIIS optimizer.
 FormGI is forming the generalized inverse of G from B-inverse, IUseBI=4.
 Internal  Forces:  Max     0.000180948 RMS     0.000045101
 Search for a local minimum.
 Step number   6 out of a maximum of   77
 All quantities printed in internal units (Hartrees-Bohrs-Radians)
 RMS Force = .45101D-04 SwitMx=.10000D-02 MixMth= 2
 Mixed Optimization -- En-DIIS/RFO-DIIS
 Swapping is turned off.
 Update second derivatives using D2CorX and points    1    2    3    4    5
                                                      6
 DE= -5.68D-05 DEPred=-5.66D-05 R= 1.00D+00
 TightC=F SS=  1.41D+00  RLast= 2.75D-02 DXNew= 4.8490D-01 8.2401D-02
 Trust test= 1.00D+00 RLast= 2.75D-02 DXMaxT set to 2.88D-01
 ITU=  1  1 -1  1  1  0
     Eigenvalues ---    0.00618   0.01644   0.02077   0.02105   0.02135
     Eigenvalues ---    0.02156   0.02177   0.02182   0.02186   0.02193
     Eigenvalues ---    0.02858   0.06506   0.15055   0.15999   0.16000
     Eigenvalues ---    0.16004   0.16195   0.16882   0.21664   0.22031
     Eigenvalues ---    0.22204   0.23642   0.25007   0.30552   0.33880
     Eigenvalues ---    0.35099   0.35106   0.35110   0.35130   0.35631
     Eigenvalues ---    0.41487   0.42873   0.43579   0.46422   0.46646
     Eigenvalues ---    0.46997   0.50497   0.53879   0.97793
 En-DIIS/RFO-DIIS/Sim-DIIS IScMMF=       -3 using points:     6    5    4    3
 RFO step:  Lambda=-4.19507389D-06.
 NNeg= 0 NGDIIS= 4 SimSw=  2.50D-03 Rises=F DC= -5.68D-05 SmlDif=  1.00D-05
 NRisDI= 0 DoIntr=F SqrtH=F CThrHd= 10.0 CDAdj=  3.0
 RMS Error=  0.2829816495D-02 NUsed= 4 OKEnD=T EnDIS=F
 InvSVX:  RCond= 3.56D-06 Info=           0 Equed=N FErr=  5.78D-14 BErr=  7.72D-17
 DidBck=F Rises=F RFO-DIIS coefs:    1.38420   -0.32768   -0.03117   -0.02535
 Iteration  1 RMS(Cart)=  0.00642787 RMS(Int)=  0.00002377
 Iteration  2 RMS(Cart)=  0.00003259 RMS(Int)=  0.00000636
 Iteration  3 RMS(Cart)=  0.00000000 RMS(Int)=  0.00000636
 ITry= 1 IFail=0 DXMaxC= 3.43D-02 DCOld= 1.00D+10 DXMaxT= 2.88D-01 DXLimC= 3.00D+00 Rises=F
 Variable       Old X    -DE/DX   Delta X   Delta X   Delta X     New X
                                 (Linear)    (Quad)   (Total)
    R1        2.63020  -0.00005   0.00017  -0.00032  -0.00015   2.63004
    R2        2.65071   0.00003  -0.00026   0.00040   0.00013   2.65084
    R3        2.04945   0.00001   0.00007  -0.00001   0.00006   2.04950
    R4        2.05289  -0.00000   0.00001  -0.00002  -0.00000   2.05289
    R5        2.63987   0.00007  -0.00017   0.00032   0.00015   2.64003
    R6        2.63747  -0.00004  -0.00018  -0.00001  -0.00019   2.63728
    R7        2.63495   0.00004   0.00003   0.00009   0.00012   2.63508
    R8        2.05259   0.00000   0.00005  -0.00003   0.00002   2.05262
    R9        2.84082  -0.00006   0.00197  -0.00209  -0.00013   2.84069
   R10        2.65045  -0.00002   0.00075  -0.00070   0.00004   2.65049
   R11        2.05318   0.00002   0.00007  -0.00001   0.00006   2.05324
   R12        2.28481   0.00004   0.00065  -0.00065   0.00001   2.28482
   R13        2.56828  -0.00001  -0.00226   0.00240   0.00014   2.56842
   R14        2.05725   0.00003  -0.00002   0.00005   0.00003   2.05728
   R15        1.83220   0.00007  -0.00011   0.00021   0.00010   1.83230
    A1        2.10406   0.00003   0.00065  -0.00043   0.00022   2.10428
    A2        2.11817  -0.00007  -0.00156   0.00108  -0.00048   2.11769
    A3        2.06096   0.00004   0.00090  -0.00065   0.00025   2.06121
    A4        2.09105   0.00002   0.00002   0.00018   0.00020   2.09125
    A5        2.09564  -0.00002   0.00001  -0.00011  -0.00010   2.09554
    A6        2.09650  -0.00000  -0.00003  -0.00007  -0.00010   2.09640
    A7        2.09470   0.00001   0.00013  -0.00005   0.00008   2.09478
    A8        2.09849   0.00000  -0.00018   0.00016  -0.00002   2.09847
    A9        2.09000  -0.00002   0.00005  -0.00011  -0.00006   2.08994
   A10        2.03492   0.00006  -0.00006   0.00016   0.00010   2.03502
   A11        2.07609  -0.00002  -0.00093   0.00072  -0.00021   2.07587
   A12        2.17217  -0.00005   0.00099  -0.00088   0.00011   2.17229
   A13        2.09240  -0.00001  -0.00023   0.00022  -0.00001   2.09239
   A14        2.09727  -0.00001   0.00008  -0.00016  -0.00008   2.09719
   A15        2.09352   0.00002   0.00015  -0.00006   0.00009   2.09361
   A16        2.14345  -0.00003  -0.00224   0.00198  -0.00028   2.14317
   A17        2.05934  -0.00016   0.00178  -0.00215  -0.00040   2.05894
   A18        2.08040   0.00018   0.00054   0.00017   0.00068   2.08108
   A19        2.10350  -0.00000   0.00037  -0.00035   0.00002   2.10351
   A20        2.05456  -0.00000  -0.00114   0.00090  -0.00024   2.05431
   A21        2.12513   0.00001   0.00077  -0.00055   0.00022   2.12535
   A22        1.93945   0.00003   0.00220  -0.00176   0.00044   1.93989
    D1       -3.14111   0.00001   0.00020   0.00018   0.00038  -3.14073
    D2        0.00066   0.00001   0.00022   0.00028   0.00050   0.00116
    D3        0.00020   0.00000   0.00001   0.00022   0.00023   0.00042
    D4       -3.14122   0.00001   0.00003   0.00032   0.00035  -3.14087
    D5        3.14150  -0.00000  -0.00021   0.00014  -0.00007   3.14143
    D6       -0.00136  -0.00001  -0.00032  -0.00053  -0.00085  -0.00221
    D7        0.00019  -0.00000  -0.00002   0.00010   0.00007   0.00026
    D8        3.14051  -0.00001  -0.00014  -0.00057  -0.00071   3.13980
    D9        0.00031   0.00000   0.00002   0.00012   0.00013   0.00045
   D10        3.14139  -0.00000  -0.00004  -0.00013  -0.00017   3.14122
   D11       -3.14110   0.00000   0.00004   0.00022   0.00026  -3.14084
   D12       -0.00002  -0.00000  -0.00002  -0.00003  -0.00005  -0.00007
   D13       -0.00057  -0.00001  -0.00014  -0.00025  -0.00040  -0.00097
   D14        3.14153  -0.00000  -0.00008  -0.00001  -0.00009   3.14144
   D15        3.14046  -0.00001  -0.00014  -0.00054  -0.00068   3.13978
   D16       -0.00062  -0.00001  -0.00008  -0.00029  -0.00037  -0.00099
   D17       -0.00014   0.00000   0.00004  -0.00000   0.00003  -0.00011
   D18        3.13890  -0.00003  -0.00024  -0.00126  -0.00149   3.13741
   D19       -3.14118   0.00001   0.00004   0.00028   0.00031  -3.14086
   D20       -0.00213  -0.00002  -0.00024  -0.00098  -0.00121  -0.00334
   D21        0.01775   0.00006   0.00340   0.00801   0.01140   0.02915
   D22       -3.12303   0.00006   0.00004   0.01152   0.01157  -3.11146
   D23       -3.12250   0.00008   0.00352   0.00872   0.01223  -3.11027
   D24        0.01991   0.00007   0.00016   0.01223   0.01240   0.03231
   D25        0.00110   0.00001   0.00019   0.00039   0.00059   0.00168
   D26       -3.13784   0.00004   0.00048   0.00170   0.00218  -3.13567
   D27        3.14132  -0.00000   0.00007  -0.00033  -0.00026   3.14105
   D28        0.00238   0.00003   0.00036   0.00097   0.00133   0.00370
   D29        0.00806   0.00009   0.00201   0.00147   0.00348   0.01154
   D30       -3.13274   0.00009  -0.00120   0.00485   0.00364  -3.12910
         Item               Value     Threshold  Converged?
 Maximum Force            0.000181     0.000450     YES
 RMS     Force            0.000045     0.000300     YES
 Maximum Displacement     0.034307     0.001800     NO 
 RMS     Displacement     0.006428     0.001200     NO 
 Predicted change in Energy=-2.088579D-06
 Lowest energy point so far.  Saving SCF results.
 GradGradGradGradGradGradGradGradGradGradGradGradGradGradGradGradGradGrad

 Leave Link  103 at Mon Sep 21 10:05:36 2026, MaxMem=  3758096384 cpu:               0.7 elap:               0.1
 (Enter /opt/software/gaussian/16RevA.03/g16/l202.exe)
                          Input orientation:                          
 ---------------------------------------------------------------------
 Center     Atomic      Atomic             Coordinates (Angstroms)
 Number     Number       Type             X           Y           Z
 ---------------------------------------------------------------------
      1          6           0       -0.844221    2.006685    0.022578
      2          6           0       -1.512021    0.788635    0.108553
      3          6           0        0.601379   -0.379074   -0.002301
      4          1           0       -2.595475    0.770837    0.185668
      5          6           0        0.554285    2.047900   -0.078584
      6          6           0       -0.790449   -0.407568    0.096035
      7          1           0       -1.383703    2.947502    0.031121
      8          6           0        1.182858    3.410566   -0.166523
      9          6           0        1.269820    0.841612   -0.089039
     10          1           0        1.168148   -1.305640   -0.010840
     11          1           0       -1.310193   -1.359340    0.163422
     12          1           0        2.355935    0.819949   -0.160296
     13          8           0        0.538778    4.432886   -0.123123
     14          1           0        2.928969    2.597409   -0.334409
     15          8           0        2.533398    3.482049   -0.301495
 ---------------------------------------------------------------------
                    Distance matrix (angstroms):
                    1          2          3          4          5
     1  C    0.000000
     2  C    1.391759   0.000000
     3  C    2.789664   2.417084   0.000000
     4  H    2.149606   1.086340   3.402574   0.000000
     5  C    1.402766   2.427013   2.428630   3.409062   0.000000
     6  C    2.415968   1.397041   1.395589   2.157497   2.805017
     7  H    1.084551   2.164064   3.873988   2.496027   2.139419
     8  C    2.472993   3.769956   3.837507   4.622555   1.503229
     9  C    2.416408   2.789353   1.394422   3.875691   1.402580
    10  H    3.875854   3.403462   1.086197   4.302933   3.409935
    11  H    3.401043   2.158134   2.154645   2.487991   3.891547
    12  H    3.418009   3.877415   2.130982   4.963725   2.181854
    13  O    2.796493   4.188081   4.813884   4.830062   2.385452
    14  H    3.835800   4.815629   3.793076   5.841775   2.450823
    15  O    3.700005   4.877299   4.327874   5.821799   2.454254
                    6          7          8          9         10
     6  C    0.000000
     7  H    3.407735   0.000000
     8  C    4.305929   2.615478   0.000000
     9  C    2.416488   3.389749   2.571593   0.000000
    10  H    2.157326   4.960134   4.718799   2.151080   0.000000
    11  H    1.086530   4.309501   5.392233   3.400647   2.485041
    12  H    3.387069   4.306741   2.843844   1.088665   2.439530
    13  O    5.024427   2.434356   1.209074   3.665083   5.774028
    14  H    4.800962   4.342271   1.933473   2.428128   4.294064
    15  O    5.131775   3.967374   1.359149   2.934906   4.987019
                   11         12         13         14         15
    11  H    0.000000
    12  H    4.277218   0.000000
    13  O    6.086928   4.044350   0.000000
    14  H    5.820155   1.875646   3.021032   0.000000
    15  O    6.199065   2.671743   2.216849   0.969612   0.000000
 Stoichiometry    C7H6O2
 Framework group  C1[X(C7H6O2)]
 Deg. of freedom    39
 Full point group                 C1      NOp   1
 RotChk:  IX=0 Diff= 2.20D-03
 Largest Abelian subgroup         C1      NOp   1
 Largest concise Abelian subgroup C1      NOp   1
                         Standard orientation:                         
 ---------------------------------------------------------------------
 Center     Atomic      Atomic             Coordinates (Angstroms)
 Number     Number       Type             X           Y           Z
 ---------------------------------------------------------------------
      1          6           0       -0.486679   -1.209342    0.009620
      2          6           0       -1.878390   -1.197946    0.011997
      3          6           0       -1.859692    1.218957   -0.010993
      4          1           0       -2.426281   -2.135956    0.021390
      5          6           0        0.236527   -0.007426   -0.001415
      6          6           0       -2.568384    0.016769    0.001962
      7          1           0        0.069737   -2.140258    0.016591
      8          6           0        1.735250   -0.123723   -0.002912
      9          6           0       -0.465324    1.206867   -0.012736
     10          1           0       -2.390409    2.166624   -0.020540
     11          1           0       -3.654860    0.027461    0.003449
     12          1           0        0.049112    2.166213   -0.027036
     13          8           0        2.309517   -1.187490   -0.024754
     14          1           0        1.887655    1.803014    0.049738
     15          8           0        2.463634    1.023486    0.022663
 ---------------------------------------------------------------------
 Rotational constants (GHZ):           3.8433431           1.2144943           0.9229652
 Leave Link  202 at Mon Sep 21 10:05:37 2026, MaxMem=  3758096384 cpu:               0.3 elap:               0.1
 (Enter /opt/software/gaussian/16RevA.03/g16/l301.exe)
 Standard basis: 6-31G(d) (6D, 7F)
 Ernie: Thresh=  0.10000D-02 Tol=  0.10000D-05 Strict=F.
 There are   147 symmetry adapted cartesian basis functions of A   symmetry.
 There are   147 symmetry adapted basis functions of A   symmetry.
   147 basis functions,   276 primitive gaussians,   147 cartesian basis functions
    32 alpha electrons       32 beta electrons
       nuclear repulsion energy       403.9516592522 Hartrees.
 IExCor=  402 DFT=T Ex+Corr=B3LYP ExCW=0 ScaHFX=  0.200000
 ScaDFX=  0.800000  0.720000  1.000000  0.810000 ScalE2=  1.000000  1.000000
 IRadAn=      5 IRanWt=     -1 IRanGd=            0 ICorTp=0 IEmpDi=  4
 NAtoms=   15 NActive=   15 NUniq=   15 SFac= 1.00D+00 NAtFMM=   60 NAOKFM=F Big=F
 Integral buffers will be    131072 words long.
 Raffenetti 2 integral format.
 Two-electron integral symmetry is turned on.
 Leave Link  301 at Mon Sep 21 10:05:37 2026, MaxMem=  3758096384 cpu:               0.5 elap:               0.1
 (Enter /opt/software/gaussian/16RevA.03/g16/l302.exe)
 NPDir=0 NMtPBC=     1 NCelOv=     1 NCel=       1 NClECP=     1 NCelD=      1
         NCelK=      1 NCelE2=     1 NClLst=     1 CellRange=     0.0.
 One-electron integrals computed using PRISM.
 One-electron integral symmetry used in STVInt
 NBasis=   147 RedAO= T EigKep=  4.68D-04  NBF=   147
 NBsUse=   147 1.00D-06 EigRej= -1.00D+00 NBFU=   147
 Precomputing XC quadrature grid using
 IXCGrd= 4 IRadAn=           5 IRanWt=          -1 IRanGd=           0 AccXCQ= 0.00D+00.
 Generated NRdTot=       0 NPtTot=           0 NUsed=           0 NTot=          32
 NSgBfM=   147   147   147   147   147 MxSgAt=    15 MxSgA2=    15.
 Leave Link  302 at Mon Sep 21 10:05:37 2026, MaxMem=  3758096384 cpu:               1.0 elap:               0.1
 (Enter /opt/software/gaussian/16RevA.03/g16/l303.exe)
 DipDrv:  MaxL=1.
 Leave Link  303 at Mon Sep 21 10:05:37 2026, MaxMem=  3758096384 cpu:               0.2 elap:               0.0
 (Enter /opt/software/gaussian/16RevA.03/g16/l401.exe)
 Initial guess from the checkpoint file:  "job.chk"
 B after Tr=     0.000000   -0.000000   -0.000000
         Rot=    1.000000    0.000001    0.000000    0.000005 Ang=   0.00 deg.
 Guess basis will be translated and rotated to current coordinates.
 JPrj=2 DoOrth=T DoCkMO=T.
 Generating alternative initial guess.
 ExpMin= 1.61D-01 ExpMax= 5.48D+03 ExpMxC= 8.25D+02 IAcc=2 IRadAn=         4 AccDes= 0.00D+00
 Harris functional with IExCor=  402 and IRadAn=       4 diagonalized for initial guess.
 HarFok:  IExCor=  402 AccDes= 0.00D+00 IRadAn=         4 IDoV= 1 UseB2=F ITyADJ=14
 ICtDFT=  3500011 ScaDFX=  1.000000  1.000000  1.000000  1.000000
 FoFCou: FMM=F IPFlag=           0 FMFlag=      100000 FMFlg1=           0
         NFxFlg=           0 DoJE=T BraDBF=F KetDBF=T FulRan=T
         wScrn=  0.000000 ICntrl=       500 IOpCl=  0 I1Cent=   200000004 NGrid=           0
         NMat0=    1 NMatS0=      1 NMatT0=    0 NMatD0=    1 NMtDS0=    0 NMtDT0=    0
 Petite list used in FoFCou.
 Harris En= -420.838404321543    
 Leave Link  401 at Mon Sep 21 10:05:37 2026, MaxMem=  3758096384 cpu:               2.4 elap:               0.3
 (Enter /opt/software/gaussian/16RevA.03/g16/l502.exe)
 Integral symmetry usage will be decided dynamically.
 Closed shell SCF:
 Using DIIS extrapolation, IDIIS=  1040.
 NGot=  3758096384 LenX=  3758050306 LenY=  3758028256
 Requested convergence on RMS density matrix=1.00D-08 within 128 cycles.
 Requested convergence on MAX density matrix=1.00D-06.
 Requested convergence on             energy=1.00D-06.
 No special actions if energy rises.
 Fock matrices will be formed incrementally for  20 cycles.
 Integral accuracy reduced to 1.0D-05 until final iterations.

 Cycle   1  Pass 0  IDiag  1:
 FoFJK:  IHMeth= 1 ICntrl=       0 DoSepK=F KAlg= 0 I1Cent=           0 FoldK=F
 IRaf= 940000000 NMat=       1 IRICut=       1 DoRegI=T DoRafI=F ISym2E= 0 IDoP0=0 IntGTp=1.
 FoFCou: FMM=F IPFlag=           0 FMFlag=      100000 FMFlg1=           0
         NFxFlg=           0 DoJE=F BraDBF=F KetDBF=F FulRan=T
         wScrn=  0.000000 ICntrl=         0 IOpCl=  0 I1Cent=           0 NGrid=           0
         NMat0=    1 NMatS0=      1 NMatT0=    0 NMatD0=    1 NMtDS0=    0 NMtDT0=    0
 Symmetry not used in FoFCou.
 E= -420.809851250397    
 DIIS: error= 6.62D-04 at cycle   1 NSaved=   1.
 NSaved= 1 IEnMin= 1 EnMin= -420.809851250397     IErMin= 1 ErrMin= 6.62D-04
 ErrMax= 6.62D-04  0.00D+00 EMaxC= 1.00D-01 BMatC= 4.64D-05 BMatP= 4.64D-05
 IDIUse=3 WtCom= 9.93D-01 WtEn= 6.62D-03
 Coeff-Com:  0.100D+01
 Coeff-En:   0.100D+01
 Coeff:      0.100D+01
 Gap=     1.913 Goal=   None    Shift=    0.000
 RMSDP=1.01D-04 MaxDP=2.62D-03              OVMax= 3.76D-03

 Cycle   2  Pass 0  IDiag  1:
 RMSU=  1.01D-04    CP:  1.00D+00
 E= -420.809946681673     Delta-E=       -0.000095431276 Rises=F Damp=F
 DIIS: error= 8.41D-05 at cycle   2 NSaved=   2.
 NSaved= 2 IEnMin= 2 EnMin= -420.809946681673     IErMin= 2 ErrMin= 8.41D-05
 ErrMax= 8.41D-05  0.00D+00 EMaxC= 1.00D-01 BMatC= 7.31D-07 BMatP= 4.64D-05
 IDIUse=1 WtCom= 1.00D+00 WtEn= 0.00D+00
 Coeff-Com: -0.723D-01 0.107D+01
 Coeff:     -0.723D-01 0.107D+01
 Gap=     0.215 Goal=   None    Shift=    0.000
 RMSDP=1.22D-05 MaxDP=2.85D-04 DE=-9.54D-05 OVMax= 4.72D-04

 Cycle   3  Pass 0  IDiag  1:
 RMSU=  9.44D-06    CP:  1.00D+00  1.08D+00
 E= -420.809948098707     Delta-E=       -0.000001417034 Rises=F Damp=F
 DIIS: error= 2.75D-05 at cycle   3 NSaved=   3.
 NSaved= 3 IEnMin= 3 EnMin= -420.809948098707     IErMin= 3 ErrMin= 2.75D-05
 ErrMax= 2.75D-05  0.00D+00 EMaxC= 1.00D-01 BMatC= 8.08D-08 BMatP= 7.31D-07
 IDIUse=1 WtCom= 1.00D+00 WtEn= 0.00D+00
 Coeff-Com: -0.248D-01 0.271D+00 0.754D+00
 Coeff:     -0.248D-01 0.271D+00 0.754D+00
 Gap=     0.215 Goal=   None    Shift=    0.000
 RMSDP=2.90D-06 MaxDP=4.83D-05 DE=-1.42D-06 OVMax= 1.00D-04

 Initial convergence to 1.0D-05 achieved.  Increase integral accuracy.
 Cycle   4  Pass 1  IDiag  1:
 E= -420.809941433568     Delta-E=        0.000006665139 Rises=F Damp=F
 DIIS: error= 1.20D-05 at cycle   1 NSaved=   1.
 NSaved= 1 IEnMin= 1 EnMin= -420.809941433568     IErMin= 1 ErrMin= 1.20D-05
 ErrMax= 1.20D-05  0.00D+00 EMaxC= 1.00D-01 BMatC= 4.32D-08 BMatP= 4.32D-08
 IDIUse=1 WtCom= 1.00D+00 WtEn= 0.00D+00
 Coeff-Com:  0.100D+01
 Coeff:      0.100D+01
 Gap=     0.215 Goal=   None    Shift=    0.000
 RMSDP=2.90D-06 MaxDP=4.83D-05 DE= 6.67D-06 OVMax= 1.65D-04

 Cycle   5  Pass 1  IDiag  1:
 RMSU=  6.04D-06    CP:  1.00D+00
 E= -420.809941342500     Delta-E=        0.000000091068 Rises=F Damp=F
 DIIS: error= 2.65D-05 at cycle   2 NSaved=   2.
 NSaved= 2 IEnMin= 1 EnMin= -420.809941433568     IErMin= 1 ErrMin= 1.20D-05
 ErrMax= 2.65D-05  0.00D+00 EMaxC= 1.00D-01 BMatC= 1.42D-07 BMatP= 4.32D-08
 IDIUse=1 WtCom= 1.00D+00 WtEn= 0.00D+00
 Coeff-Com:  0.658D+00 0.342D+00
 Coeff:      0.658D+00 0.342D+00
 Gap=     0.215 Goal=   None    Shift=    0.000
 RMSDP=2.66D-06 MaxDP=7.76D-05 DE= 9.11D-08 OVMax= 1.29D-04

 Cycle   6  Pass 1  IDiag  1:
 RMSU=  2.15D-06    CP:  1.00D+00  7.41D-01
 E= -420.809941469895     Delta-E=       -0.000000127396 Rises=F Damp=F
 DIIS: error= 3.88D-06 at cycle   3 NSaved=   3.
 NSaved= 3 IEnMin= 3 EnMin= -420.809941469895     IErMin= 3 ErrMin= 3.88D-06
 ErrMax= 3.88D-06  0.00D+00 EMaxC= 1.00D-01 BMatC= 2.58D-09 BMatP= 4.32D-08
 IDIUse=1 WtCom= 1.00D+00 WtEn= 0.00D+00
 Coeff-Com:  0.718D-01 0.128D+00 0.800D+00
 Coeff:      0.718D-01 0.128D+00 0.800D+00
 Gap=     0.215 Goal=   None    Shift=    0.000
 RMSDP=4.45D-07 MaxDP=1.60D-05 DE=-1.27D-07 OVMax= 2.07D-05

 Cycle   7  Pass 1  IDiag  1:
 RMSU=  3.86D-07    CP:  1.00D+00  7.66D-01  9.24D-01
 E= -420.809941471075     Delta-E=       -0.000000001180 Rises=F Damp=F
 DIIS: error= 2.54D-06 at cycle   4 NSaved=   4.
 NSaved= 4 IEnMin= 4 EnMin= -420.809941471075     IErMin= 4 ErrMin= 2.54D-06
 ErrMax= 2.54D-06  0.00D+00 EMaxC= 1.00D-01 BMatC= 8.91D-10 BMatP= 2.58D-09
 IDIUse=1 WtCom= 1.00D+00 WtEn= 0.00D+00
 Coeff-Com:  0.306D-02 0.598D-01 0.503D+00 0.434D+00
 Coeff:      0.306D-02 0.598D-01 0.503D+00 0.434D+00
 Gap=     0.215 Goal=   None    Shift=    0.000
 RMSDP=2.33D-07 MaxDP=5.47D-06 DE=-1.18D-09 OVMax= 1.29D-05

 Cycle   8  Pass 1  IDiag  1:
 RMSU=  9.27D-08    CP:  1.00D+00  7.72D-01  9.16D-01  4.57D-01
 E= -420.809941471915     Delta-E=       -0.000000000840 Rises=F Damp=F
 DIIS: error= 4.82D-07 at cycle   5 NSaved=   5.
 NSaved= 5 IEnMin= 5 EnMin= -420.809941471915     IErMin= 5 ErrMin= 4.82D-07
 ErrMax= 4.82D-07  0.00D+00 EMaxC= 1.00D-01 BMatC= 4.01D-11 BMatP= 8.91D-10
 IDIUse=1 WtCom= 1.00D+00 WtEn= 0.00D+00
 Coeff-Com: -0.369D-02 0.245D-01 0.225D+00 0.243D+00 0.511D+00
 Coeff:     -0.369D-02 0.245D-01 0.225D+00 0.243D+00 0.511D+00
 Gap=     0.215 Goal=   None    Shift=    0.000
 RMSDP=4.93D-08 MaxDP=1.01D-06 DE=-8.40D-10 OVMax= 2.59D-06

 Cycle   9  Pass 1  IDiag  1:
 RMSU=  2.58D-08    CP:  1.00D+00  7.72D-01  9.20D-01  4.95D-01  5.82D-01
 E= -420.809941471957     Delta-E=       -0.000000000042 Rises=F Damp=F
 DIIS: error= 8.42D-08 at cycle   6 NSaved=   6.
 NSaved= 6 IEnMin= 6 EnMin= -420.809941471957     IErMin= 6 ErrMin= 8.42D-08
 ErrMax= 8.42D-08  0.00D+00 EMaxC= 1.00D-01 BMatC= 1.90D-12 BMatP= 4.01D-11
 IDIUse=1 WtCom= 1.00D+00 WtEn= 0.00D+00
 Coeff-Com: -0.198D-02 0.968D-02 0.906D-01 0.103D+00 0.266D+00 0.533D+00
 Coeff:     -0.198D-02 0.968D-02 0.906D-01 0.103D+00 0.266D+00 0.533D+00
 Gap=     0.215 Goal=   None    Shift=    0.000
 RMSDP=1.04D-08 MaxDP=2.75D-07 DE=-4.21D-11 OVMax= 4.48D-07

 Cycle  10  Pass 1  IDiag  1:
 RMSU=  9.29D-09    CP:  1.00D+00  7.72D-01  9.19D-01  4.91D-01  6.16D-01
                    CP:  8.95D-01
 E= -420.809941471958     Delta-E=       -0.000000000000 Rises=F Damp=F
 DIIS: error= 2.57D-08 at cycle   7 NSaved=   7.
 NSaved= 7 IEnMin= 7 EnMin= -420.809941471958     IErMin= 7 ErrMin= 2.57D-08
 ErrMax= 2.57D-08  0.00D+00 EMaxC= 1.00D-01 BMatC= 2.02D-13 BMatP= 1.90D-12
 IDIUse=1 WtCom= 1.00D+00 WtEn= 0.00D+00
 Coeff-Com:  0.117D-03-0.232D-02-0.208D-01-0.203D-01-0.139D-01 0.238D+00
 Coeff-Com:  0.819D+00
 Coeff:      0.117D-03-0.232D-02-0.208D-01-0.203D-01-0.139D-01 0.238D+00
 Coeff:      0.819D+00
 Gap=     0.215 Goal=   None    Shift=    0.000
 RMSDP=4.36D-09 MaxDP=8.20D-08 DE=-4.55D-13 OVMax= 2.64D-07

 SCF Done:  E(RB3LYP) =  -420.809941472     A.U. after   10 cycles
            NFock= 10  Conv=0.44D-08     -V/T= 2.0093
 KE= 4.169252486893D+02 PE=-1.788462474738D+03 EE= 5.467756253242D+02
 Leave Link  502 at Mon Sep 21 10:05:42 2026, MaxMem=  3758096384 cpu:              32.7 elap:               4.2
 (Enter /opt/software/gaussian/16RevA.03/g16/l701.exe)
 ... and contract with generalized density number  0.
 Compute integral first derivatives.
 Leave Link  701 at Mon Sep 21 10:05:42 2026, MaxMem=  3758096384 cpu:               0.6 elap:               0.1
 (Enter /opt/software/gaussian/16RevA.03/g16/l702.exe)
 L702 exits ... SP integral derivatives will be done elsewhere.
 Leave Link  702 at Mon Sep 21 10:05:42 2026, MaxMem=  3758096384 cpu:               0.1 elap:               0.0
 (Enter /opt/software/gaussian/16RevA.03/g16/l703.exe)
 Integral derivatives from FoFJK, PRISM(SPDF).
 Compute integral first derivatives, UseDBF=F ICtDFT=           0.
 Calling FoFJK, ICntrl=      2127 FMM=F ISym2X=0 I1Cent= 0 IOpClX= 0 NMat=1 NMatS=1 NMatT=0.
 FoFJK:  IHMeth= 1 ICntrl=    2127 DoSepK=F KAlg= 0 I1Cent=           0 FoldK=F
 IRaf=         0 NMat=       1 IRICut=       1 DoRegI=T DoRafI=F ISym2E= 0 IDoP0=0 IntGTp=1.
 FoFCou: FMM=F IPFlag=           0 FMFlag=      100000 FMFlg1=         800
         NFxFlg=           0 DoJE=F BraDBF=F KetDBF=F FulRan=T
         wScrn=  0.000000 ICntrl=      2127 IOpCl=  0 I1Cent=           0 NGrid=           0
         NMat0=    1 NMatS0=      1 NMatT0=    0 NMatD0=    1 NMtDS0=    0 NMtDT0=    0
 Symmetry not used in FoFCou.
 Leave Link  703 at Mon Sep 21 10:05:43 2026, MaxMem=  3758096384 cpu:               9.4 elap:               1.2
 (Enter /opt/software/gaussian/16RevA.03/g16/l716.exe)
 Dipole        =-1.60040841D+00 9.97526289D-01 2.96957989D-02
 ***** Axes restored to original set *****
 -------------------------------------------------------------------
 Center     Atomic                   Forces (Hartrees/Bohr)
 Number     Number              X              Y              Z
 -------------------------------------------------------------------
      1        6           0.000008112    0.000009536   -0.000037722
      2        6          -0.000018822    0.000024814   -0.000001252
      3        6          -0.000013636   -0.000004814   -0.000001071
      4        1           0.000005366    0.000004763   -0.000005611
      5        6          -0.000005912   -0.000048788   -0.000018268
      6        6           0.000001604   -0.000045750    0.000013541
      7        1           0.000001139   -0.000013899    0.000017881
      8        6           0.000056607   -0.000030930    0.000001920
      9        6          -0.000001760    0.000036133   -0.000012190
     10        1           0.000009513    0.000008635    0.000002224
     11        1          -0.000001213    0.000003963   -0.000004813
     12        1           0.000025851    0.000039629    0.000094360
     13        8           0.000053276    0.000011511    0.000002622
     14        1          -0.000063352   -0.000026718   -0.000178181
     15        8          -0.000056774    0.000031916    0.000126559
 -------------------------------------------------------------------
 Cartesian Forces:  Max     0.000178181 RMS     0.000043480
 Leave Link  716 at Mon Sep 21 10:05:43 2026, MaxMem=  3758096384 cpu:               0.2 elap:               0.0
 (Enter /opt/software/gaussian/16RevA.03/g16/l103.exe)

 GradGradGradGradGradGradGradGradGradGradGradGradGradGradGradGradGradGrad
 Berny optimization.
 Using GEDIIS/GDIIS optimizer.
 FormGI is forming the generalized inverse of G from B-inverse, IUseBI=4.
 Internal  Forces:  Max     0.000170424 RMS     0.000050525
 Search for a local minimum.
 Step number   7 out of a maximum of   77
 All quantities printed in internal units (Hartrees-Bohrs-Radians)
 RMS Force = .50525D-04 SwitMx=.10000D-02 MixMth= 2
 Mixed Optimization -- En-DIIS/RFO-DIIS
 Swapping is turned off.
 Update second derivatives using D2CorX and points    1    2    3    4    5
                                                      6    7
 DE= -5.42D-06 DEPred=-2.09D-06 R= 2.60D+00
 TightC=F SS=  1.41D+00  RLast= 2.46D-02 DXNew= 4.8490D-01 7.3947D-02
 Trust test= 2.60D+00 RLast= 2.46D-02 DXMaxT set to 2.88D-01
 ITU=  1  1  1 -1  1  1  0
     Eigenvalues ---   -0.00483   0.01624   0.01892   0.02097   0.02134
     Eigenvalues ---    0.02155   0.02177   0.02182   0.02186   0.02192
     Eigenvalues ---    0.02429   0.06423   0.13519   0.15789   0.15997
     Eigenvalues ---    0.16000   0.16133   0.16526   0.20659   0.21699
     Eigenvalues ---    0.22052   0.23237   0.23783   0.30337   0.31858
     Eigenvalues ---    0.35072   0.35106   0.35109   0.35128   0.35376
     Eigenvalues ---    0.41413   0.42721   0.43098   0.46423   0.46633
     Eigenvalues ---    0.46849   0.50152   0.53367   0.97885
 Eigenvalue     1 is  -4.83D-03 should be greater than     0.000000 Eigenvector:
                          D24       D23       D22       D21       D30
   1                   -0.49176  -0.46989  -0.44781  -0.42593  -0.24787
                          D29       D26       D18       D28       D20
   1                   -0.22682  -0.12055   0.08474  -0.07564   0.06702
 Use linear search instead of GDIIS.
 RFO step:  Lambda=-4.85140131D-03 EMin=-4.83394609D-03
 I=     1 Eig=   -4.83D-03 Dot1= -1.75D-04
 I=     1 Stepn= -6.00D-01 RXN=   6.00D-01 EDone=F
 Mixed    1 eigenvectors in step.  Raw Step.Grad=  1.75D-04.
 RFO eigenvector is Hessian eigenvector with negative curvature.
 Taking step of  6.00D-01 in eigenvector direction(s).  Step.Grad=  1.04D-07.
 Skip linear search -- no minimum in search direction.
 Iteration  1 RMS(Cart)=  0.12108741 RMS(Int)=  0.02154649
 Iteration  2 RMS(Cart)=  0.04215263 RMS(Int)=  0.00098736
 Iteration  3 RMS(Cart)=  0.00144214 RMS(Int)=  0.00008909
 Iteration  4 RMS(Cart)=  0.00000130 RMS(Int)=  0.00008909
 Iteration  5 RMS(Cart)=  0.00000000 RMS(Int)=  0.00008909
 ITry= 1 IFail=0 DXMaxC= 8.54D-01 DCOld= 1.00D+10 DXMaxT= 2.88D-01 DXLimC= 3.00D+00 Rises=F
 Variable       Old X    -DE/DX   Delta X   Delta X   Delta X     New X
                                 (Linear)    (Quad)   (Total)
    R1        2.63004   0.00000   0.00000   0.00044   0.00038   2.63043
    R2        2.65084  -0.00001   0.00000  -0.00030  -0.00031   2.65054
    R3        2.04950  -0.00001   0.00000  -0.00052  -0.00052   2.04898
    R4        2.05289  -0.00001   0.00000  -0.00021  -0.00021   2.05268
    R5        2.64003   0.00004   0.00000   0.00073   0.00069   2.64071
    R6        2.63728   0.00002   0.00000  -0.00032  -0.00031   2.63697
    R7        2.63508   0.00001   0.00000   0.00057   0.00063   2.63570
    R8        2.05262  -0.00000   0.00000  -0.00011  -0.00011   2.05251
    R9        2.84069  -0.00001   0.00000   0.00435   0.00435   2.84504
   R10        2.65049  -0.00006   0.00000  -0.00094  -0.00089   2.64960
   R11        2.05324  -0.00000   0.00000  -0.00064  -0.00064   2.05260
   R12        2.28482  -0.00002   0.00000  -0.00180  -0.00180   2.28302
   R13        2.56842  -0.00011   0.00000  -0.00092  -0.00092   2.56750
   R14        2.05728   0.00002   0.00000  -0.00064  -0.00064   2.05664
   R15        1.83230   0.00000   0.00000  -0.00237  -0.00237   1.82994
    A1        2.10428  -0.00001   0.00000  -0.00038  -0.00042   2.10386
    A2        2.11769  -0.00000   0.00000   0.00174   0.00176   2.11945
    A3        2.06121   0.00001   0.00000  -0.00136  -0.00135   2.05986
    A4        2.09125  -0.00000   0.00000  -0.00076  -0.00072   2.09053
    A5        2.09554  -0.00000   0.00000   0.00103   0.00095   2.09648
    A6        2.09640   0.00001   0.00000  -0.00027  -0.00023   2.09617
    A7        2.09478  -0.00000   0.00000  -0.00040  -0.00031   2.09446
    A8        2.09847   0.00001   0.00000   0.00107   0.00100   2.09947
    A9        2.08994  -0.00001   0.00000  -0.00068  -0.00074   2.08919
   A10        2.03502   0.00008   0.00000   0.00212   0.00198   2.03701
   A11        2.07587   0.00003   0.00000  -0.00066  -0.00068   2.07519
   A12        2.17229  -0.00011   0.00000  -0.00151  -0.00164   2.17064
   A13        2.09239  -0.00002   0.00000  -0.00101  -0.00103   2.09135
   A14        2.09719   0.00001   0.00000   0.00039   0.00038   2.09757
   A15        2.09361   0.00001   0.00000   0.00062   0.00061   2.09421
   A16        2.14317   0.00010   0.00000   0.00842   0.00840   2.15156
   A17        2.05894  -0.00008   0.00000   0.00625   0.00622   2.06516
   A18        2.08108  -0.00002   0.00000  -0.01468  -0.01470   2.06638
   A19        2.10351   0.00000   0.00000   0.00137   0.00114   2.10465
   A20        2.05431   0.00004   0.00000   0.00109   0.00066   2.05497
   A21        2.12535  -0.00004   0.00000  -0.00264  -0.00308   2.12227
   A22        1.93989  -0.00009   0.00000  -0.01458  -0.01458   1.92531
    D1       -3.14073   0.00001   0.00000   0.01111   0.01112  -3.12962
    D2        0.00116   0.00001   0.00000   0.01443   0.01444   0.01561
    D3        0.00042   0.00001   0.00000   0.00610   0.00610   0.00652
    D4       -3.14087   0.00001   0.00000   0.00942   0.00943  -3.13144
    D5        3.14143  -0.00000   0.00000  -0.00242  -0.00241   3.13902
    D6       -0.00221  -0.00002   0.00000  -0.02727  -0.02727  -0.02949
    D7        0.00026  -0.00000   0.00000   0.00243   0.00244   0.00270
    D8        3.13980  -0.00002   0.00000  -0.02242  -0.02243   3.11738
    D9        0.00045   0.00000   0.00000   0.00540   0.00541   0.00585
   D10        3.14122  -0.00000   0.00000  -0.00459  -0.00460   3.13662
   D11       -3.14084   0.00001   0.00000   0.00873   0.00874  -3.13210
   D12       -0.00007  -0.00000   0.00000  -0.00126  -0.00126  -0.00133
   D13       -0.00097  -0.00001   0.00000  -0.01197  -0.01198  -0.01295
   D14        3.14144  -0.00000   0.00000  -0.00200  -0.00200   3.13945
   D15        3.13978  -0.00002   0.00000  -0.02266  -0.02268   3.11710
   D16       -0.00099  -0.00001   0.00000  -0.01269  -0.01270  -0.01369
   D17       -0.00011   0.00000   0.00000  -0.00121  -0.00120  -0.00131
   D18        3.13741  -0.00004   0.00000  -0.05085  -0.05088   3.08653
   D19       -3.14086   0.00001   0.00000   0.00942   0.00943  -3.13143
   D20       -0.00334  -0.00003   0.00000  -0.04021  -0.04024  -0.04359
   D21        0.02915   0.00008   0.00000   0.25556   0.25553   0.28468
   D22       -3.11146   0.00011   0.00000   0.26869   0.26871  -2.84274
   D23       -3.11027   0.00010   0.00000   0.28193   0.28191  -2.82836
   D24        0.03231   0.00013   0.00000   0.29506   0.29509   0.32740
   D25        0.00168   0.00001   0.00000   0.02065   0.02066   0.02234
   D26       -3.13567   0.00006   0.00000   0.07233   0.07227  -3.06340
   D27        3.14105  -0.00000   0.00000  -0.00629  -0.00625   3.13481
   D28        0.00370   0.00004   0.00000   0.04539   0.04536   0.04907
   D29        0.01154   0.00014   0.00000   0.13609   0.13615   0.14769
   D30       -3.12910   0.00017   0.00000   0.14872   0.14866  -2.98044
         Item               Value     Threshold  Converged?
 Maximum Force            0.000170     0.000450     YES
 RMS     Force            0.000051     0.000300     YES
 Maximum Displacement     0.854077     0.001800     NO 
 RMS     Displacement     0.158714     0.001200     NO 
 Predicted change in Energy=-1.044708D-03
 Lowest energy point so far.  Saving SCF results.
 GradGradGradGradGradGradGradGradGradGradGradGradGradGradGradGradGradGrad

 Leave Link  103 at Mon Sep 21 10:05:43 2026, MaxMem=  3758096384 cpu:               0.7 elap:               0.1
 (Enter /opt/software/gaussian/16RevA.03/g16/l202.exe)
                          Input orientation:                          
 ---------------------------------------------------------------------
 Center     Atomic      Atomic             Coordinates (Angstroms)
 Number     Number       Type             X           Y           Z
 ---------------------------------------------------------------------
      1          6           0       -0.836444    2.004187   -0.000040
      2          6           0       -1.510227    0.786804    0.039394
      3          6           0        0.603141   -0.384856    0.062301
      4          1           0       -2.596278    0.771468    0.051949
      5          6           0        0.565294    2.042343   -0.031200
      6          6           0       -0.792019   -0.411590    0.067142
      7          1           0       -1.372094    2.946827   -0.012706
      8          6           0        1.204367    3.404758   -0.076297
      9          6           0        1.277187    0.835259    0.014195
     10          1           0        1.168978   -1.310900    0.106688
     11          1           0       -1.316713   -1.361983    0.102591
     12          1           0        2.364157    0.815871    0.064996
     13          8           0        0.614392    4.423023    0.196874
     14          1           0        2.818762    2.638829   -0.786367
     15          8           0        2.505005    3.494368   -0.458752
 ---------------------------------------------------------------------
                    Distance matrix (angstroms):
                    1          2          3          4          5
     1  C    0.000000
     2  C    1.391963   0.000000
     3  C    2.789949   2.416533   0.000000
     4  H    2.149259   1.086232   3.401980   0.000000
     5  C    1.402604   2.426757   2.429294   3.408456   0.000000
     6  C    2.417119   1.397404   1.395424   2.157592   2.806021
     7  H    1.084275   2.165063   3.873924   2.496997   2.138201
     8  C    2.476353   3.773074   3.839512   4.625533   1.505530
     9  C    2.415374   2.787949   1.394753   3.874174   1.402107
    10  H    3.875939   3.403384   1.086139   4.303069   3.409939
    11  H    3.401807   2.158408   2.154585   2.488265   3.892209
    12  H    3.414700   3.874578   2.131416   4.960651   2.179310
    13  O    2.827450   4.214368   4.809776   4.864490   2.392084
    14  H    3.792310   4.780379   3.843422   5.788996   2.450345
    15  O    3.687321   4.868382   4.351662   5.805005   2.460417
                    6          7          8          9         10
     6  C    0.000000
     7  H    3.409080   0.000000
     8  C    4.309366   2.617612   0.000000
     9  C    2.416413   3.387939   2.572123   0.000000
    10  H    2.157738   4.959792   4.719339   2.150875   0.000000
    11  H    1.086190   4.310708   5.395337   3.400589   2.486219
    12  H    3.386461   4.301928   2.840319   1.088329   2.439948
    13  O    5.036696   2.483788   1.208121   3.653043   5.761386
    14  H    4.803257   4.272784   1.922789   2.504040   4.372607
    15  O    5.138427   3.940895   1.358662   2.966829   5.019491
                   11         12         13         14         15
    11  H    0.000000
    12  H    4.277063   0.000000
    13  O    6.099537   4.011311   0.000000
    14  H    5.822276   2.062683   3.001559   0.000000
    15  O    6.205222   2.732854   2.206052   0.968360   0.000000
 Stoichiometry    C7H6O2
 Framework group  C1[X(C7H6O2)]
 Deg. of freedom    39
 Full point group                 C1      NOp   1
 RotChk:  IX=0 Diff= 4.62D-02
 Largest Abelian subgroup         C1      NOp   1
 Largest concise Abelian subgroup C1      NOp   1
                         Standard orientation:                         
 ---------------------------------------------------------------------
 Center     Atomic      Atomic             Coordinates (Angstroms)
 Number     Number       Type             X           Y           Z
 ---------------------------------------------------------------------
      1          6           0       -0.485924   -1.204833    0.090876
      2          6           0       -1.877597   -1.194597    0.117395
      3          6           0       -1.866558    1.211458   -0.107135
      4          1           0       -2.422314   -2.129887    0.209130
      5          6           0        0.233841   -0.005451   -0.012655
      6          6           0       -2.571897    0.014360    0.021952
      7          1           0        0.074075   -2.131150    0.154022
      8          6           0        1.735164   -0.116532   -0.030339
      9          6           0       -0.471961    1.200830   -0.125050
     10          1           0       -2.398867    2.153166   -0.204767
     11          1           0       -3.657935    0.023107    0.037887
     12          1           0        0.039921    2.148700   -0.279905
     13          8           0        2.320798   -1.150860   -0.246568
     14          1           0        1.890920    1.718548    0.522236
     15          8           0        2.467177    0.999123    0.225459
 ---------------------------------------------------------------------
 Rotational constants (GHZ):           3.8569891           1.2014322           0.9256426
 Leave Link  202 at Mon Sep 21 10:05:43 2026, MaxMem=  3758096384 cpu:               0.3 elap:               0.1
 (Enter /opt/software/gaussian/16RevA.03/g16/l301.exe)
 Standard basis: 6-31G(d) (6D, 7F)
 Ernie: Thresh=  0.10000D-02 Tol=  0.10000D-05 Strict=F.
 There are   147 symmetry adapted cartesian basis functions of A   symmetry.
 There are   147 symmetry adapted basis functions of A   symmetry.
   147 basis functions,   276 primitive gaussians,   147 cartesian basis functions
    32 alpha electrons       32 beta electrons
       nuclear repulsion energy       403.6357949195 Hartrees.
 IExCor=  402 DFT=T Ex+Corr=B3LYP ExCW=0 ScaHFX=  0.200000
 ScaDFX=  0.800000  0.720000  1.000000  0.810000 ScalE2=  1.000000  1.000000
 IRadAn=      5 IRanWt=     -1 IRanGd=            0 ICorTp=0 IEmpDi=  4
 NAtoms=   15 NActive=   15 NUniq=   15 SFac= 1.00D+00 NAtFMM=   60 NAOKFM=F Big=F
 Integral buffers will be    131072 words long.
 Raffenetti 2 integral format.
 Two-electron integral symmetry is turned on.
 Leave Link  301 at Mon Sep 21 10:05:43 2026, MaxMem=  3758096384 cpu:               0.5 elap:               0.1
 (Enter /opt/software/gaussian/16RevA.03/g16/l302.exe)
 NPDir=0 NMtPBC=     1 NCelOv=     1 NCel=       1 NClECP=     1 NCelD=      1
         NCelK=      1 NCelE2=     1 NClLst=     1 CellRange=     0.0.
 One-electron integrals computed using PRISM.
 One-electron integral symmetry used in STVInt
 NBasis=   147 RedAO= T EigKep=  4.72D-04  NBF=   147
 NBsUse=   147 1.00D-06 EigRej= -1.00D+00 NBFU=   147
 Precomputing XC quadrature grid using
 IXCGrd= 4 IRadAn=           5 IRanWt=          -1 IRanGd=           0 AccXCQ= 0.00D+00.
 Generated NRdTot=       0 NPtTot=           0 NUsed=           0 NTot=          32
 NSgBfM=   147   147   147   147   147 MxSgAt=    15 MxSgA2=    15.
 Leave Link  302 at Mon Sep 21 10:05:44 2026, MaxMem=  3758096384 cpu:               1.0 elap:               0.2
 (Enter /opt/software/gaussian/16RevA.03/g16/l303.exe)
 DipDrv:  MaxL=1.
 Leave Link  303 at Mon Sep 21 10:05:44 2026, MaxMem=  3758096384 cpu:               0.2 elap:               0.0
 (Enter /opt/software/gaussian/16RevA.03/g16/l401.exe)
 Initial guess from the checkpoint file:  "job.chk"
 B after Tr=    -0.000000    0.000000    0.000000
         Rot=    0.999999   -0.000998   -0.000004   -0.000792 Ang=  -0.15 deg.
 Guess basis will be translated and rotated to current coordinates.
 JPrj=2 DoOrth=T DoCkMO=T.
 Generating alternative initial guess.
 ExpMin= 1.61D-01 ExpMax= 5.48D+03 ExpMxC= 8.25D+02 IAcc=2 IRadAn=         4 AccDes= 0.00D+00
 Harris functional with IExCor=  402 and IRadAn=       4 diagonalized for initial guess.
 HarFok:  IExCor=  402 AccDes= 0.00D+00 IRadAn=         4 IDoV= 1 UseB2=F ITyADJ=14
 ICtDFT=  3500011 ScaDFX=  1.000000  1.000000  1.000000  1.000000
 FoFCou: FMM=F IPFlag=           0 FMFlag=      100000 FMFlg1=           0
         NFxFlg=           0 DoJE=T BraDBF=F KetDBF=T FulRan=T
         wScrn=  0.000000 ICntrl=       500 IOpCl=  0 I1Cent=   200000004 NGrid=           0
         NMat0=    1 NMatS0=      1 NMatT0=    0 NMatD0=    1 NMtDS0=    0 NMtDT0=    0
 Petite list used in FoFCou.
 Harris En= -420.839079531393    
 Leave Link  401 at Mon Sep 21 10:05:44 2026, MaxMem=  3758096384 cpu:               2.4 elap:               0.3
 (Enter /opt/software/gaussian/16RevA.03/g16/l502.exe)
 Integral symmetry usage will be decided dynamically.
 Closed shell SCF:
 Using DIIS extrapolation, IDIIS=  1040.
 NGot=  3758096384 LenX=  3758050306 LenY=  3758028256
 Requested convergence on RMS density matrix=1.00D-08 within 128 cycles.
 Requested convergence on MAX density matrix=1.00D-06.
 Requested convergence on             energy=1.00D-06.
 No special actions if energy rises.
 Fock matrices will be formed incrementally for  20 cycles.
 Integral accuracy reduced to 1.0D-05 until final iterations.

 Cycle   1  Pass 0  IDiag  1:
 FoFJK:  IHMeth= 1 ICntrl=       0 DoSepK=F KAlg= 0 I1Cent=           0 FoldK=F
 IRaf= 940000000 NMat=       1 IRICut=       1 DoRegI=T DoRafI=F ISym2E= 0 IDoP0=0 IntGTp=1.
 FoFCou: FMM=F IPFlag=           0 FMFlag=      100000 FMFlg1=           0
         NFxFlg=           0 DoJE=F BraDBF=F KetDBF=F FulRan=T
         wScrn=  0.000000 ICntrl=         0 IOpCl=  0 I1Cent=           0 NGrid=           0
         NMat0=    1 NMatS0=      1 NMatT0=    0 NMatD0=    1 NMtDS0=    0 NMtDT0=    0
 Symmetry not used in FoFCou.
 E= -420.754109904400    
 DIIS: error= 1.27D-02 at cycle   1 NSaved=   1.
 NSaved= 1 IEnMin= 1 EnMin= -420.754109904400     IErMin= 1 ErrMin= 1.27D-02
 ErrMax= 1.27D-02  0.00D+00 EMaxC= 1.00D-01 BMatC= 2.67D-02 BMatP= 2.67D-02
 IDIUse=3 WtCom= 8.73D-01 WtEn= 1.27D-01
 Coeff-Com:  0.100D+01
 Coeff-En:   0.100D+01
 Coeff:      0.100D+01
 Recover alternate guess density for next cycle.
 RMSDP=4.32D-03 MaxDP=8.10D-02              OVMax= 0.00D+00

 Cycle   2  Pass 0  IDiag  1:
 RMSU=  4.32D-03    CP:  1.00D+00
 E= -420.579173730132     Delta-E=        0.174936174269 Rises=F Damp=F
 Switch densities from cycles 1 and 2 for lowest energy.
 DIIS: error= 4.33D-02 at cycle   2 NSaved=   2.
 NSaved= 2 IEnMin= 1 EnMin= -420.754109904400     IErMin= 1 ErrMin= 1.27D-02
 ErrMax= 4.33D-02  0.00D+00 EMaxC= 1.00D+00 BMatC= 2.56D-01 BMatP= 2.67D-02
 IDIUse=1 WtCom= 1.00D+00 WtEn= 0.00D+00
 Coeff-Com:  0.919D+00 0.806D-01
 Coeff:      0.919D+00 0.806D-01
 Gap=     0.216 Goal=   None    Shift=    0.000
 RMSDP=2.32D-03 MaxDP=5.09D-02 DE= 1.75D-01 OVMax= 9.87D-02

 Cycle   3  Pass 0  IDiag  1:
 RMSU=  2.14D-03    CP:  9.95D-01  2.06D-01
 E= -420.805160626911     Delta-E=       -0.225986896779 Rises=F Damp=F
 DIIS: error= 5.98D-03 at cycle   3 NSaved=   3.
 NSaved= 3 IEnMin= 3 EnMin= -420.805160626911     IErMin= 3 ErrMin= 5.98D-03
 ErrMax= 5.98D-03  0.00D+00 EMaxC= 1.00D+00 BMatC= 6.03D-03 BMatP= 2.67D-02
 IDIUse=1 WtCom= 1.00D+00 WtEn= 0.00D+00
 Coeff-Com:  0.707D-03 0.119D+00 0.880D+00
 Coeff:      0.707D-03 0.119D+00 0.880D+00
 Gap=     0.219 Goal=   None    Shift=    0.000
 RMSDP=6.63D-04 MaxDP=2.19D-02 DE=-2.26D-01 OVMax= 2.32D-02

 Cycle   4  Pass 0  IDiag  1:
 RMSU=  5.12D-04    CP:  9.93D-01  2.97D-01  9.33D-01
 E= -420.808442606067     Delta-E=       -0.003281979156 Rises=F Damp=F
 DIIS: error= 3.59D-03 at cycle   4 NSaved=   4.
 NSaved= 4 IEnMin= 4 EnMin= -420.808442606067     IErMin= 4 ErrMin= 3.59D-03
 ErrMax= 3.59D-03  0.00D+00 EMaxC= 1.00D+00 BMatC= 2.05D-03 BMatP= 6.03D-03
 IDIUse=1 WtCom= 1.00D+00 WtEn= 0.00D+00
 Coeff-Com: -0.341D-01 0.503D-01 0.500D+00 0.483D+00
 Coeff:     -0.341D-01 0.503D-01 0.500D+00 0.483D+00
 Gap=     0.215 Goal=   None    Shift=    0.000
 RMSDP=3.45D-04 MaxDP=9.64D-03 DE=-3.28D-03 OVMax= 1.11D-02

 Cycle   5  Pass 0  IDiag  1:
 RMSU=  1.93D-04    CP:  9.94D-01  2.95D-01  9.65D-01  4.62D-01
 E= -420.810061442686     Delta-E=       -0.001618836619 Rises=F Damp=F
 DIIS: error= 6.74D-04 at cycle   5 NSaved=   5.
 NSaved= 5 IEnMin= 5 EnMin= -420.810061442686     IErMin= 5 ErrMin= 6.74D-04
 ErrMax= 6.74D-04  0.00D+00 EMaxC= 1.00D+00 BMatC= 1.25D-04 BMatP= 2.05D-03
 IDIUse=1 WtCom= 1.00D+00 WtEn= 0.00D+00
 Coeff-Com: -0.146D-01 0.118D-01 0.145D+00 0.247D+00 0.610D+00
 Coeff:     -0.146D-01 0.118D-01 0.145D+00 0.247D+00 0.610D+00
 Gap=     0.214 Goal=   None    Shift=    0.000
 RMSDP=9.79D-05 MaxDP=2.52D-03 DE=-1.62D-03 OVMax= 4.48D-03

 Cycle   6  Pass 0  IDiag  1:
 RMSU=  5.68D-05    CP:  9.94D-01  2.98D-01  9.65D-01  5.62D-01  6.96D-01
 E= -420.810153851671     Delta-E=       -0.000092408985 Rises=F Damp=F
 DIIS: error= 3.93D-04 at cycle   6 NSaved=   6.
 NSaved= 6 IEnMin= 6 EnMin= -420.810153851671     IErMin= 6 ErrMin= 3.93D-04
 ErrMax= 3.93D-04  0.00D+00 EMaxC= 1.00D+00 BMatC= 2.63D-05 BMatP= 1.25D-04
 IDIUse=1 WtCom= 1.00D+00 WtEn= 0.00D+00
 Coeff-Com: -0.484D-02 0.202D-02 0.405D-01 0.107D+00 0.381D+00 0.474D+00
 Coeff:     -0.484D-02 0.202D-02 0.405D-01 0.107D+00 0.381D+00 0.474D+00
 Gap=     0.214 Goal=   None    Shift=    0.000
 RMSDP=3.40D-05 MaxDP=1.10D-03 DE=-9.24D-05 OVMax= 1.93D-03

 Cycle   7  Pass 0  IDiag  1:
 RMSU=  2.07D-05    CP:  9.94D-01  2.96D-01  9.67D-01  5.61D-01  7.25D-01
                    CP:  5.71D-01
 E= -420.810174381314     Delta-E=       -0.000020529643 Rises=F Damp=F
 DIIS: error= 5.87D-05 at cycle   7 NSaved=   7.
 NSaved= 7 IEnMin= 7 EnMin= -420.810174381314     IErMin= 7 ErrMin= 5.87D-05
 ErrMax= 5.87D-05  0.00D+00 EMaxC= 1.00D+00 BMatC= 1.16D-06 BMatP= 2.63D-05
 IDIUse=1 WtCom= 1.00D+00 WtEn= 0.00D+00
 Coeff-Com: -0.879D-03-0.167D-03 0.319D-02 0.240D-01 0.111D+00 0.225D+00
 Coeff-Com:  0.638D+00
 Coeff:     -0.879D-03-0.167D-03 0.319D-02 0.240D-01 0.111D+00 0.225D+00
 Coeff:      0.638D+00
 Gap=     0.214 Goal=   None    Shift=    0.000
 RMSDP=8.35D-06 MaxDP=2.12D-04 DE=-2.05D-05 OVMax= 3.50D-04

 Initial convergence to 1.0D-05 achieved.  Increase integral accuracy.
 Cycle   8  Pass 1  IDiag  1:
 E= -420.810176835489     Delta-E=       -0.000002454175 Rises=F Damp=F
 DIIS: error= 2.76D-05 at cycle   1 NSaved=   1.
 NSaved= 1 IEnMin= 1 EnMin= -420.810176835489     IErMin= 1 ErrMin= 2.76D-05
 ErrMax= 2.76D-05  0.00D+00 EMaxC= 1.00D+00 BMatC= 1.35D-07 BMatP= 1.35D-07
 IDIUse=1 WtCom= 1.00D+00 WtEn= 0.00D+00
 Coeff-Com:  0.100D+01
 Coeff:      0.100D+01
 Gap=     0.214 Goal=   None    Shift=    0.000
 RMSDP=8.35D-06 MaxDP=2.12D-04 DE=-2.45D-06 OVMax= 3.01D-04

 Cycle   9  Pass 1  IDiag  1:
 RMSU=  7.53D-06    CP:  1.00D+00
 E= -420.810176610372     Delta-E=        0.000000225118 Rises=F Damp=F
 DIIS: error= 5.54D-05 at cycle   2 NSaved=   2.
 NSaved= 2 IEnMin= 1 EnMin= -420.810176835489     IErMin= 1 ErrMin= 2.76D-05
 ErrMax= 5.54D-05  0.00D+00 EMaxC= 1.00D+00 BMatC= 3.57D-07 BMatP= 1.35D-07
 IDIUse=1 WtCom= 1.00D+00 WtEn= 0.00D+00
 Coeff-Com:  0.625D+00 0.375D+00
 Coeff:      0.625D+00 0.375D+00
 Gap=     0.214 Goal=   None    Shift=    0.000
 RMSDP=4.33D-06 MaxDP=8.70D-05 DE= 2.25D-07 OVMax= 2.37D-04

 Cycle  10  Pass 1  IDiag  1:
 RMSU=  2.92D-06    CP:  1.00D+00  5.76D-01
 E= -420.810176960670     Delta-E=       -0.000000350298 Rises=F Damp=F
 DIIS: error= 7.16D-06 at cycle   3 NSaved=   3.
 NSaved= 3 IEnMin= 3 EnMin= -420.810176960670     IErMin= 3 ErrMin= 7.16D-06
 ErrMax= 7.16D-06  0.00D+00 EMaxC= 1.00D+00 BMatC= 9.55D-09 BMatP= 1.35D-07
 IDIUse=1 WtCom= 1.00D+00 WtEn= 0.00D+00
 Coeff-Com:  0.245D+00 0.193D+00 0.562D+00
 Coeff:      0.245D+00 0.193D+00 0.562D+00
 Gap=     0.214 Goal=   None    Shift=    0.000
 RMSDP=9.10D-07 MaxDP=2.23D-05 DE=-3.50D-07 OVMax= 3.56D-05

 Cycle  11  Pass 1  IDiag  1:
 RMSU=  7.17D-07    CP:  1.00D+00  6.17D-01  8.39D-01
 E= -420.810176969217     Delta-E=       -0.000000008548 Rises=F Damp=F
 DIIS: error= 2.70D-06 at cycle   4 NSaved=   4.
 NSaved= 4 IEnMin= 4 EnMin= -420.810176969217     IErMin= 4 ErrMin= 2.70D-06
 ErrMax= 2.70D-06  0.00D+00 EMaxC= 1.00D+00 BMatC= 1.13D-09 BMatP= 9.55D-09
 IDIUse=1 WtCom= 1.00D+00 WtEn= 0.00D+00
 Coeff-Com:  0.191D-01 0.343D-01 0.286D+00 0.661D+00
 Coeff:      0.191D-01 0.343D-01 0.286D+00 0.661D+00
 Gap=     0.214 Goal=   None    Shift=    0.000
 RMSDP=3.14D-07 MaxDP=9.90D-06 DE=-8.55D-09 OVMax= 1.38D-05

 Cycle  12  Pass 1  IDiag  1:
 RMSU=  2.13D-07    CP:  1.00D+00  6.24D-01  8.64D-01  7.06D-01
 E= -420.810176969905     Delta-E=       -0.000000000688 Rises=F Damp=F
 DIIS: error= 1.57D-06 at cycle   5 NSaved=   5.
 NSaved= 5 IEnMin= 5 EnMin= -420.810176969905     IErMin= 5 ErrMin= 1.57D-06
 ErrMax= 1.57D-06  0.00D+00 EMaxC= 1.00D+00 BMatC= 3.58D-10 BMatP= 1.13D-09
 IDIUse=1 WtCom= 1.00D+00 WtEn= 0.00D+00
 Coeff-Com: -0.762D-02 0.688D-02 0.148D+00 0.452D+00 0.401D+00
 Coeff:     -0.762D-02 0.688D-02 0.148D+00 0.452D+00 0.401D+00
 Gap=     0.214 Goal=   None    Shift=    0.000
 RMSDP=1.32D-07 MaxDP=3.16D-06 DE=-6.88D-10 OVMax= 5.89D-06

 Cycle  13  Pass 1  IDiag  1:
 RMSU=  7.10D-08    CP:  1.00D+00  6.21D-01  8.74D-01  7.46D-01  5.30D-01
 E= -420.810176970231     Delta-E=       -0.000000000326 Rises=F Damp=F
 DIIS: error= 2.20D-07 at cycle   6 NSaved=   6.
 NSaved= 6 IEnMin= 6 EnMin= -420.810176970231     IErMin= 6 ErrMin= 2.20D-07
 ErrMax= 2.20D-07  0.00D+00 EMaxC= 1.00D+00 BMatC= 1.04D-11 BMatP= 3.58D-10
 IDIUse=1 WtCom= 1.00D+00 WtEn= 0.00D+00
 Coeff-Com: -0.564D-02 0.206D-03 0.478D-01 0.166D+00 0.197D+00 0.595D+00
 Coeff:     -0.564D-02 0.206D-03 0.478D-01 0.166D+00 0.197D+00 0.595D+00
 Gap=     0.214 Goal=   None    Shift=    0.000
 RMSDP=2.69D-08 MaxDP=6.44D-07 DE=-3.26D-10 OVMax= 1.36D-06

 Cycle  14  Pass 1  IDiag  1:
 RMSU=  2.52D-08    CP:  1.00D+00  6.21D-01  8.74D-01  7.45D-01  5.67D-01
                    CP:  9.35D-01
 E= -420.810176970241     Delta-E=       -0.000000000009 Rises=F Damp=F
 DIIS: error= 4.96D-08 at cycle   7 NSaved=   7.
 NSaved= 7 IEnMin= 7 EnMin= -420.810176970241     IErMin= 7 ErrMin= 4.96D-08
 ErrMax= 4.96D-08  0.00D+00 EMaxC= 1.00D+00 BMatC= 1.12D-12 BMatP= 1.04D-11
 IDIUse=1 WtCom= 1.00D+00 WtEn= 0.00D+00
 Coeff-Com: -0.101D-02-0.129D-02-0.816D-02-0.165D-01 0.872D-02 0.252D+00
 Coeff-Com:  0.766D+00
 Coeff:     -0.101D-02-0.129D-02-0.816D-02-0.165D-01 0.872D-02 0.252D+00
 Coeff:      0.766D+00
 Gap=     0.214 Goal=   None    Shift=    0.000
 RMSDP=1.08D-08 MaxDP=2.19D-07 DE=-9.32D-12 OVMax= 6.39D-07

 Cycle  15  Pass 1  IDiag  1:
 RMSU=  5.83D-09    CP:  1.00D+00  6.21D-01  8.74D-01  7.49D-01  5.85D-01
                    CP:  1.04D+00  9.28D-01
 E= -420.810176970240     Delta-E=        0.000000000001 Rises=F Damp=F
 DIIS: error= 2.11D-08 at cycle   8 NSaved=   8.
 NSaved= 8 IEnMin= 7 EnMin= -420.810176970241     IErMin= 8 ErrMin= 2.11D-08
 ErrMax= 2.11D-08  0.00D+00 EMaxC= 1.00D+00 BMatC= 1.47D-13 BMatP= 1.12D-12
 IDIUse=1 WtCom= 1.00D+00 WtEn= 0.00D+00
 Coeff-Com: -0.698D-05-0.606D-03-0.755D-02-0.208D-01-0.118D-01 0.688D-01
 Coeff-Com:  0.365D+00 0.607D+00
 Coeff:     -0.698D-05-0.606D-03-0.755D-02-0.208D-01-0.118D-01 0.688D-01
 Coeff:      0.365D+00 0.607D+00
 Gap=     0.214 Goal=   None    Shift=    0.000
 RMSDP=3.34D-09 MaxDP=7.11D-08 DE= 1.02D-12 OVMax= 1.61D-07

 SCF Done:  E(RB3LYP) =  -420.810176970     A.U. after   15 cycles
            NFock= 15  Conv=0.33D-08     -V/T= 2.0093
 KE= 4.169308398227D+02 PE=-1.787854823622D+03 EE= 5.464780119098D+02
 Leave Link  502 at Mon Sep 21 10:05:50 2026, MaxMem=  3758096384 cpu:              43.9 elap:               5.6
 (Enter /opt/software/gaussian/16RevA.03/g16/l701.exe)
 ... and contract with generalized density number  0.
 Compute integral first derivatives.
 Leave Link  701 at Mon Sep 21 10:05:50 2026, MaxMem=  3758096384 cpu:               0.6 elap:               0.1
 (Enter /opt/software/gaussian/16RevA.03/g16/l702.exe)
 L702 exits ... SP integral derivatives will be done elsewhere.
 Leave Link  702 at Mon Sep 21 10:05:50 2026, MaxMem=  3758096384 cpu:               0.1 elap:               0.0
 (Enter /opt/software/gaussian/16RevA.03/g16/l703.exe)
 Integral derivatives from FoFJK, PRISM(SPDF).
 Compute integral first derivatives, UseDBF=F ICtDFT=           0.
 Calling FoFJK, ICntrl=      2127 FMM=F ISym2X=0 I1Cent= 0 IOpClX= 0 NMat=1 NMatS=1 NMatT=0.
 FoFJK:  IHMeth= 1 ICntrl=    2127 DoSepK=F KAlg= 0 I1Cent=           0 FoldK=F
 IRaf=         0 NMat=       1 IRICut=       1 DoRegI=T DoRafI=F ISym2E= 0 IDoP0=0 IntGTp=1.
 FoFCou: FMM=F IPFlag=           0 FMFlag=      100000 FMFlg1=         800
         NFxFlg=           0 DoJE=F BraDBF=F KetDBF=F FulRan=T
         wScrn=  0.000000 ICntrl=      2127 IOpCl=  0 I1Cent=           0 NGrid=           0
         NMat0=    1 NMatS0=      1 NMatT0=    0 NMatD0=    1 NMtDS0=    0 NMtDT0=    0
 Symmetry not used in FoFCou.
 Leave Link  703 at Mon Sep 21 10:05:51 2026, MaxMem=  3758096384 cpu:               9.4 elap:               1.2
 (Enter /opt/software/gaussian/16RevA.03/g16/l716.exe)
 Dipole        =-1.59541124D+00 9.51458192D-01 3.03779284D-01
 ***** Axes restored to original set *****
 -------------------------------------------------------------------
 Center     Atomic                   Forces (Hartrees/Bohr)
 Number     Number              X              Y              Z
 -------------------------------------------------------------------
      1        6           0.000354173    0.000374520   -0.000947280
      2        6          -0.000175920    0.000170729    0.000033690
      3        6          -0.000756720    0.000399178    0.000140434
      4        1          -0.000088670   -0.000009069    0.000059443
      5        6           0.000229185    0.001376570    0.000588786
      6        6           0.000233478    0.000250549   -0.000040491
      7        1          -0.000627942    0.000107824    0.000028799
      8        6          -0.000763784    0.002583436   -0.000446346
      9        6           0.002596955   -0.000305458    0.000713921
     10        1           0.000008992   -0.000035420   -0.000015851
     11        1          -0.000211371   -0.000149963   -0.000060648
     12        1           0.000383108    0.001996464   -0.001039528
     13        8          -0.003700096   -0.000460315    0.001806715
     14        1           0.001288969   -0.002708614   -0.000843875
     15        8           0.001229645   -0.003590432    0.000022232
 -------------------------------------------------------------------
 Cartesian Forces:  Max     0.003700096 RMS     0.001212688
 Leave Link  716 at Mon Sep 21 10:05:51 2026, MaxMem=  3758096384 cpu:               0.2 elap:               0.0
 (Enter /opt/software/gaussian/16RevA.03/g16/l103.exe)

 GradGradGradGradGradGradGradGradGradGradGradGradGradGradGradGradGradGrad
 Berny optimization.
 Using GEDIIS/GDIIS optimizer.
 FormGI is forming the generalized inverse of G from B-inverse, IUseBI=4.
 Internal  Forces:  Max     0.008153527 RMS     0.001835159
 Search for a local minimum.
 Step number   8 out of a maximum of   77
 All quantities printed in internal units (Hartrees-Bohrs-Radians)
 RMS Force = .18352D-02 SwitMx=.10000D-02 MixMth= 1
 Mixed Optimization -- RFO/linear search
 Update second derivatives using D2CorX and points    7    8
 ITU=  0  1  1  1 -1  1  1  0
 Use linear search instead of GDIIS.
     Eigenvalues ---    0.00073   0.01649   0.01971   0.02101   0.02137
     Eigenvalues ---    0.02156   0.02177   0.02182   0.02187   0.02193
     Eigenvalues ---    0.02430   0.06549   0.14578   0.15802   0.15999
     Eigenvalues ---    0.16029   0.16235   0.16786   0.21688   0.21949
     Eigenvalues ---    0.22267   0.23282   0.25483   0.30370   0.35071
     Eigenvalues ---    0.35106   0.35109   0.35122   0.35315   0.40511
     Eigenvalues ---    0.41800   0.42728   0.45989   0.46553   0.46679
     Eigenvalues ---    0.49218   0.51014   0.65875   0.98788
 RFO step:  Lambda=-4.89732394D-04 EMin= 7.31626039D-04
 Quartic linear search produced a step of -0.18993.
 Iteration  1 RMS(Cart)=  0.08471793 RMS(Int)=  0.00427600
 Iteration  2 RMS(Cart)=  0.00590226 RMS(Int)=  0.00002098
 Iteration  3 RMS(Cart)=  0.00002293 RMS(Int)=  0.00001262
 Iteration  4 RMS(Cart)=  0.00000000 RMS(Int)=  0.00001262
 ITry= 1 IFail=0 DXMaxC= 4.16D-01 DCOld= 1.00D+10 DXMaxT= 2.88D-01 DXLimC= 3.00D+00 Rises=F
 Variable       Old X    -DE/DX   Delta X   Delta X   Delta X     New X
                                 (Linear)    (Quad)   (Total)
    R1        2.63043  -0.00019  -0.00007  -0.00099  -0.00105   2.62938
    R2        2.65054  -0.00009   0.00006   0.00016   0.00022   2.65076
    R3        2.04898   0.00040   0.00010   0.00088   0.00098   2.04996
    R4        2.05268   0.00009   0.00004  -0.00002   0.00002   2.05270
    R5        2.64071   0.00042  -0.00013   0.00191   0.00178   2.64249
    R6        2.63697   0.00057   0.00006  -0.00072  -0.00066   2.63631
    R7        2.63570   0.00012  -0.00012   0.00120   0.00107   2.63677
    R8        2.05251   0.00003   0.00002   0.00016   0.00018   2.05268
    R9        2.84504  -0.00462  -0.00083  -0.00619  -0.00702   2.83802
   R10        2.64960  -0.00114   0.00017  -0.00091  -0.00075   2.64885
   R11        2.05260   0.00023   0.00012   0.00037   0.00049   2.05309
   R12        2.28302   0.00183   0.00034   0.00032   0.00066   2.28368
   R13        2.56750   0.00223   0.00017   0.00291   0.00308   2.57058
   R14        2.05664   0.00030   0.00012   0.00031   0.00043   2.05707
   R15        1.82994   0.00310   0.00045   0.00264   0.00309   1.83303
    A1        2.10386  -0.00108   0.00008  -0.00145  -0.00136   2.10250
    A2        2.11945   0.00004  -0.00033  -0.00279  -0.00313   2.11632
    A3        2.05986   0.00105   0.00026   0.00424   0.00449   2.06435
    A4        2.09053   0.00014   0.00014   0.00107   0.00120   2.09173
    A5        2.09648  -0.00026  -0.00018  -0.00059  -0.00077   2.09572
    A6        2.09617   0.00012   0.00004  -0.00048  -0.00044   2.09573
    A7        2.09446  -0.00006   0.00006   0.00022   0.00027   2.09474
    A8        2.09947   0.00002  -0.00019   0.00032   0.00014   2.09960
    A9        2.08919   0.00004   0.00014  -0.00057  -0.00043   2.08877
   A10        2.03701   0.00285  -0.00038   0.00694   0.00658   2.04359
   A11        2.07519   0.00216   0.00013   0.00307   0.00321   2.07840
   A12        2.17064  -0.00500   0.00031  -0.01023  -0.00991   2.16074
   A13        2.09135   0.00046   0.00020   0.00083   0.00103   2.09238
   A14        2.09757  -0.00035  -0.00007  -0.00136  -0.00143   2.09614
   A15        2.09421  -0.00011  -0.00012   0.00050   0.00039   2.09460
   A16        2.15156  -0.00017  -0.00159  -0.00044  -0.00203   2.14954
   A17        2.06516  -0.00797  -0.00118  -0.01552  -0.01670   2.04846
   A18        2.06638   0.00815   0.00279   0.01596   0.01876   2.08514
   A19        2.10465  -0.00122  -0.00022  -0.00236  -0.00256   2.10210
   A20        2.05497   0.00271  -0.00012   0.00687   0.00677   2.06174
   A21        2.12227  -0.00147   0.00058  -0.00574  -0.00511   2.11716
   A22        1.92531   0.00043   0.00277  -0.00062   0.00215   1.92746
    D1       -3.12962  -0.00012  -0.00211   0.00453   0.00242  -3.12720
    D2        0.01561  -0.00013  -0.00274   0.00652   0.00378   0.01939
    D3        0.00652   0.00003  -0.00116   0.00544   0.00427   0.01079
    D4       -3.13144   0.00002  -0.00179   0.00743   0.00563  -3.12581
    D5        3.13902   0.00006   0.00046  -0.00190  -0.00144   3.13758
    D6       -0.02949   0.00023   0.00518  -0.01101  -0.00584  -0.03533
    D7        0.00270  -0.00008  -0.00046  -0.00276  -0.00322  -0.00051
    D8        3.11738   0.00009   0.00426  -0.01187  -0.00762   3.10976
    D9        0.00585  -0.00004  -0.00103   0.00253   0.00150   0.00736
   D10        3.13662   0.00007   0.00087  -0.00112  -0.00026   3.13636
   D11       -3.13210  -0.00005  -0.00166   0.00453   0.00287  -3.12923
   D12       -0.00133   0.00006   0.00024   0.00087   0.00110  -0.00023
   D13       -0.01295   0.00005   0.00228  -0.00700  -0.00474  -0.01769
   D14        3.13945  -0.00006   0.00038  -0.00334  -0.00297   3.13648
   D15        3.11710   0.00019   0.00431  -0.01041  -0.00611   3.11099
   D16       -0.01369   0.00008   0.00241  -0.00675  -0.00434  -0.01803
   D17       -0.00131   0.00010   0.00023   0.00246   0.00269   0.00138
   D18        3.08653   0.00041   0.00966  -0.02329  -0.01367   3.07286
   D19       -3.13143  -0.00004  -0.00179   0.00583   0.00406  -3.12738
   D20       -0.04359   0.00027   0.00764  -0.01992  -0.01230  -0.05589
   D21        0.28468   0.00053  -0.04853   0.20149   0.15296   0.43764
   D22       -2.84274  -0.00038  -0.05104   0.20054   0.14950  -2.69324
   D23       -2.82836   0.00022  -0.05354   0.21090   0.15735  -2.67101
   D24        0.32740  -0.00068  -0.05605   0.20995   0.15390   0.48129
   D25        0.02234  -0.00022  -0.00392   0.00651   0.00259   0.02494
   D26       -3.06340  -0.00067  -0.01373   0.03287   0.01911  -3.04429
   D27        3.13481   0.00010   0.00119  -0.00304  -0.00184   3.13297
   D28        0.04907  -0.00036  -0.00862   0.02332   0.01468   0.06374
   D29        0.14769   0.00017  -0.02586   0.09587   0.07002   0.21771
   D30       -2.98044  -0.00063  -0.02824   0.09509   0.06685  -2.91358
         Item               Value     Threshold  Converged?
 Maximum Force            0.008154     0.000450     NO 
 RMS     Force            0.001835     0.000300     NO 
 Maximum Displacement     0.415970     0.001800     NO 
 RMS     Displacement     0.085279     0.001200     NO 
 Predicted change in Energy=-1.105581D-04
 Lowest energy point so far.  Saving SCF results.
 GradGradGradGradGradGradGradGradGradGradGradGradGradGradGradGradGradGrad

 Leave Link  103 at Mon Sep 21 10:05:51 2026, MaxMem=  3758096384 cpu:               0.7 elap:               0.1
 (Enter /opt/software/gaussian/16RevA.03/g16/l202.exe)
                          Input orientation:                          
 ---------------------------------------------------------------------
 Center     Atomic      Atomic             Coordinates (Angstroms)
 Number     Number       Type             X           Y           Z
 ---------------------------------------------------------------------
      1          6           0       -0.830026    2.006552   -0.016254
      2          6           0       -1.504516    0.789680    0.000855
      3          6           0        0.607812   -0.382544    0.098563
      4          1           0       -2.590385    0.773075   -0.022398
      5          6           0        0.572174    2.042696   -0.004027
      6          6           0       -0.786297   -0.408952    0.053910
      7          1           0       -1.368191    2.948074   -0.042600
      8          6           0        1.221633    3.396585   -0.029355
      9          6           0        1.284210    0.837507    0.068913
     10          1           0        1.171499   -1.308429    0.168560
     11          1           0       -1.312678   -1.359196    0.072200
     12          1           0        2.367908    0.826122    0.171001
     13          8           0        0.677314    4.398405    0.371238
     14          1           0        2.708591    2.657101   -1.006489
     15          8           0        2.478463    3.477731   -0.543350
 ---------------------------------------------------------------------
                    Distance matrix (angstroms):
                    1          2          3          4          5
     1  C    0.000000
     2  C    1.391405   0.000000
     3  C    2.790761   2.417765   0.000000
     4  H    2.149503   1.086244   3.402727   0.000000
     5  C    1.402720   2.425432   2.427671   3.407940   0.000000
     6  C    2.416919   1.398346   1.395074   2.158181   2.803459
     7  H    1.084795   2.163132   3.875247   2.494952   2.141545
     8  C    2.478239   3.772103   3.830790   4.627562   1.501816
     9  C    2.417419   2.789967   1.395320   3.876206   1.401712
    10  H    3.876772   3.404591   1.086234   4.303591   3.408668
    11  H    3.401329   2.158601   2.154722   2.487582   3.889904
    12  H    3.413981   3.876332   2.136365   4.962346   2.176085
    13  O    2.853627   4.233257   4.789223   4.896511   2.387728
    14  H    3.731700   4.717232   3.856663   5.709389   2.438585
    15  O    3.659002   4.835897   4.337408   5.768862   2.446248
                    6          7          8          9         10
     6  C    0.000000
     7  H    3.408452   0.000000
     8  C    4.303584   2.628408   0.000000
     9  C    2.416793   3.391484   2.561729   0.000000
    10  H    2.157584   4.961092   4.709441   2.151202   0.000000
    11  H    1.086450   4.309158   5.389852   3.401374   2.486563
    12  H    3.389414   4.301947   2.821590   1.088555   2.446979
    13  O    5.035230   2.541419   1.208471   3.624876   5.731776
    14  H    4.768581   4.199274   1.926829   2.548778   4.412348
    15  O    5.110938   3.915104   1.360293   2.961738   5.012215
                   11         12         13         14         15
    11  H    0.000000
    12  H    4.281599   0.000000
    13  O    6.099137   3.957198   0.000000
    14  H    5.784878   2.203414   3.009379   0.000000
    15  O    6.176368   2.748372   2.219966   0.969996   0.000000
 Stoichiometry    C7H6O2
 Framework group  C1[X(C7H6O2)]
 Deg. of freedom    39
 Full point group                 C1      NOp   1
 RotChk:  IX=0 Diff= 2.31D-02
 Largest Abelian subgroup         C1      NOp   1
 Largest concise Abelian subgroup C1      NOp   1
                         Standard orientation:                         
 ---------------------------------------------------------------------
 Center     Atomic      Atomic             Coordinates (Angstroms)
 Number     Number       Type             X           Y           Z
 ---------------------------------------------------------------------
      1          6           0       -0.483075   -1.204101    0.135883
      2          6           0       -1.873950   -1.189596    0.171464
      3          6           0       -1.859851    1.205444   -0.158944
      4          1           0       -2.421016   -2.118333    0.305972
      5          6           0        0.236843   -0.010338   -0.019904
      6          6           0       -2.566066    0.017002    0.028396
      7          1           0        0.072758   -2.130873    0.230344
      8          6           0        1.734957   -0.113204   -0.042853
      9          6           0       -0.464787    1.192230   -0.182203
     10          1           0       -2.391229    2.142387   -0.299229
     11          1           0       -3.652219    0.028133    0.051244
     12          1           0        0.053804    2.125296   -0.395284
     13          8           0        2.323690   -1.116072   -0.371567
     14          1           0        1.859972    1.631151    0.766014
     15          8           0        2.442997    0.983274    0.340305
 ---------------------------------------------------------------------
 Rotational constants (GHZ):           3.8377727           1.1995103           0.9353237
 Leave Link  202 at Mon Sep 21 10:05:51 2026, MaxMem=  3758096384 cpu:               0.3 elap:               0.1
 (Enter /opt/software/gaussian/16RevA.03/g16/l301.exe)
 Standard basis: 6-31G(d) (6D, 7F)
 Ernie: Thresh=  0.10000D-02 Tol=  0.10000D-05 Strict=F.
 There are   147 symmetry adapted cartesian basis functions of A   symmetry.
 There are   147 symmetry adapted basis functions of A   symmetry.
   147 basis functions,   276 primitive gaussians,   147 cartesian basis functions
    32 alpha electrons       32 beta electrons
       nuclear repulsion energy       403.7331418858 Hartrees.
 IExCor=  402 DFT=T Ex+Corr=B3LYP ExCW=0 ScaHFX=  0.200000
 ScaDFX=  0.800000  0.720000  1.000000  0.810000 ScalE2=  1.000000  1.000000
 IRadAn=      5 IRanWt=     -1 IRanGd=            0 ICorTp=0 IEmpDi=  4
 NAtoms=   15 NActive=   15 NUniq=   15 SFac= 1.00D+00 NAtFMM=   60 NAOKFM=F Big=F
 Integral buffers will be    131072 words long.
 Raffenetti 2 integral format.
 Two-electron integral symmetry is turned on.
 Leave Link  301 at Mon Sep 21 10:05:52 2026, MaxMem=  3758096384 cpu:               0.5 elap:               0.1
 (Enter /opt/software/gaussian/16RevA.03/g16/l302.exe)
 NPDir=0 NMtPBC=     1 NCelOv=     1 NCel=       1 NClECP=     1 NCelD=      1
         NCelK=      1 NCelE2=     1 NClLst=     1 CellRange=     0.0.
 One-electron integrals computed using PRISM.
 One-electron integral symmetry used in STVInt
 NBasis=   147 RedAO= T EigKep=  4.76D-04  NBF=   147
 NBsUse=   147 1.00D-06 EigRej= -1.00D+00 NBFU=   147
 Precomputing XC quadrature grid using
 IXCGrd= 4 IRadAn=           5 IRanWt=          -1 IRanGd=           0 AccXCQ= 0.00D+00.
 Generated NRdTot=       0 NPtTot=           0 NUsed=           0 NTot=          32
 NSgBfM=   147   147   147   147   147 MxSgAt=    15 MxSgA2=    15.
 Leave Link  302 at Mon Sep 21 10:05:52 2026, MaxMem=  3758096384 cpu:               1.0 elap:               0.1
 (Enter /opt/software/gaussian/16RevA.03/g16/l303.exe)
 DipDrv:  MaxL=1.
 Leave Link  303 at Mon Sep 21 10:05:52 2026, MaxMem=  3758096384 cpu:               0.2 elap:               0.0
 (Enter /opt/software/gaussian/16RevA.03/g16/l401.exe)
 Initial guess from the checkpoint file:  "job.chk"
 B after Tr=    -0.000000   -0.000000    0.000000
         Rot=    0.999998   -0.001921    0.000419   -0.000572 Ang=  -0.23 deg.
 Guess basis will be translated and rotated to current coordinates.
 JPrj=2 DoOrth=T DoCkMO=T.
 Generating alternative initial guess.
 ExpMin= 1.61D-01 ExpMax= 5.48D+03 ExpMxC= 8.25D+02 IAcc=2 IRadAn=         4 AccDes= 0.00D+00
 Harris functional with IExCor=  402 and IRadAn=       4 diagonalized for initial guess.
 HarFok:  IExCor=  402 AccDes= 0.00D+00 IRadAn=         4 IDoV= 1 UseB2=F ITyADJ=14
 ICtDFT=  3500011 ScaDFX=  1.000000  1.000000  1.000000  1.000000
 FoFCou: FMM=F IPFlag=           0 FMFlag=      100000 FMFlg1=           0
         NFxFlg=           0 DoJE=T BraDBF=F KetDBF=T FulRan=T
         wScrn=  0.000000 ICntrl=       500 IOpCl=  0 I1Cent=   200000004 NGrid=           0
         NMat0=    1 NMatS0=      1 NMatT0=    0 NMatD0=    1 NMtDS0=    0 NMtDT0=    0
 Petite list used in FoFCou.
 Harris En= -420.839018970672    
 Leave Link  401 at Mon Sep 21 10:05:52 2026, MaxMem=  3758096384 cpu:               2.4 elap:               0.3
 (Enter /opt/software/gaussian/16RevA.03/g16/l502.exe)
 Integral symmetry usage will be decided dynamically.
 Closed shell SCF:
 Using DIIS extrapolation, IDIIS=  1040.
 NGot=  3758096384 LenX=  3758050306 LenY=  3758028256
 Requested convergence on RMS density matrix=1.00D-08 within 128 cycles.
 Requested convergence on MAX density matrix=1.00D-06.
 Requested convergence on             energy=1.00D-06.
 No special actions if energy rises.
 Fock matrices will be formed incrementally for  20 cycles.
 Integral accuracy reduced to 1.0D-05 until final iterations.

 Cycle   1  Pass 0  IDiag  1:
 FoFJK:  IHMeth= 1 ICntrl=       0 DoSepK=F KAlg= 0 I1Cent=           0 FoldK=F
 IRaf= 940000000 NMat=       1 IRICut=       1 DoRegI=T DoRafI=F ISym2E= 0 IDoP0=0 IntGTp=1.
 FoFCou: FMM=F IPFlag=           0 FMFlag=      100000 FMFlg1=           0
         NFxFlg=           0 DoJE=F BraDBF=F KetDBF=F FulRan=T
         wScrn=  0.000000 ICntrl=         0 IOpCl=  0 I1Cent=           0 NGrid=           0
         NMat0=    1 NMatS0=      1 NMatT0=    0 NMatD0=    1 NMtDS0=    0 NMtDT0=    0
 Symmetry not used in FoFCou.
 E= -420.793244900317    
 DIIS: error= 7.25D-03 at cycle   1 NSaved=   1.
 NSaved= 1 IEnMin= 1 EnMin= -420.793244900317     IErMin= 1 ErrMin= 7.25D-03
 ErrMax= 7.25D-03  0.00D+00 EMaxC= 1.00D-01 BMatC= 8.20D-03 BMatP= 8.20D-03
 IDIUse=3 WtCom= 9.27D-01 WtEn= 7.25D-02
 Coeff-Com:  0.100D+01
 Coeff-En:   0.100D+01
 Coeff:      0.100D+01
 Gap=     1.911 Goal=   None    Shift=    0.000
 GapD=    1.911 DampG=2.000 DampE=1.000 DampFc=2.0000 IDamp=-1.
 RMSDP=1.14D-03 MaxDP=2.49D-02              OVMax= 4.64D-02

 Cycle   2  Pass 0  IDiag  1:
 RMSU=  1.14D-03    CP:  9.98D-01
 E= -420.809832099209     Delta-E=       -0.016587198893 Rises=F Damp=F
 DIIS: error= 1.15D-03 at cycle   2 NSaved=   2.
 NSaved= 2 IEnMin= 2 EnMin= -420.809832099209     IErMin= 2 ErrMin= 1.15D-03
 ErrMax= 1.15D-03  0.00D+00 EMaxC= 1.00D-01 BMatC= 1.63D-04 BMatP= 8.20D-03
 IDIUse=3 WtCom= 9.88D-01 WtEn= 1.15D-02
 Coeff-Com: -0.615D-01 0.106D+01
 Coeff-En:   0.000D+00 0.100D+01
 Coeff:     -0.608D-01 0.106D+01
 Gap=     0.215 Goal=   None    Shift=    0.000
 RMSDP=2.01D-04 MaxDP=4.06D-03 DE=-1.66D-02 OVMax= 7.35D-03

 Cycle   3  Pass 0  IDiag  1:
 RMSU=  1.80D-04    CP:  9.97D-01  1.08D+00
 E= -420.809993006089     Delta-E=       -0.000160906880 Rises=F Damp=F
 DIIS: error= 7.85D-04 at cycle   3 NSaved=   3.
 NSaved= 3 IEnMin= 3 EnMin= -420.809993006089     IErMin= 3 ErrMin= 7.85D-04
 ErrMax= 7.85D-04  0.00D+00 EMaxC= 1.00D-01 BMatC= 1.50D-04 BMatP= 1.63D-04
 IDIUse=3 WtCom= 9.92D-01 WtEn= 7.85D-03
 Coeff-Com: -0.441D-01 0.555D+00 0.489D+00
 Coeff-En:   0.000D+00 0.644D-02 0.994D+00
 Coeff:     -0.438D-01 0.551D+00 0.493D+00
 Gap=     0.214 Goal=   None    Shift=    0.000
 RMSDP=1.06D-04 MaxDP=3.19D-03 DE=-1.61D-04 OVMax= 3.93D-03

 Cycle   4  Pass 0  IDiag  1:
 RMSU=  7.20D-05    CP:  9.97D-01  1.09D+00  5.77D-01
 E= -420.810097560901     Delta-E=       -0.000104554812 Rises=F Damp=F
 DIIS: error= 3.86D-04 at cycle   4 NSaved=   4.
 NSaved= 4 IEnMin= 4 EnMin= -420.810097560901     IErMin= 4 ErrMin= 3.86D-04
 ErrMax= 3.86D-04  0.00D+00 EMaxC= 1.00D-01 BMatC= 3.03D-05 BMatP= 1.50D-04
 IDIUse=3 WtCom= 9.96D-01 WtEn= 3.86D-03
 Coeff-Com: -0.156D-01 0.161D+00 0.317D+00 0.538D+00
 Coeff-En:   0.000D+00 0.000D+00 0.175D+00 0.825D+00
 Coeff:     -0.156D-01 0.160D+00 0.316D+00 0.539D+00
 Gap=     0.214 Goal=   None    Shift=    0.000
 RMSDP=3.65D-05 MaxDP=1.38D-03 DE=-1.05D-04 OVMax= 1.91D-03

 Cycle   5  Pass 0  IDiag  1:
 RMSU=  2.05D-05    CP:  9.97D-01  1.09D+00  6.68D-01  6.57D-01
 E= -420.810120831355     Delta-E=       -0.000023270454 Rises=F Damp=F
 DIIS: error= 1.18D-04 at cycle   5 NSaved=   5.
 NSaved= 5 IEnMin= 5 EnMin= -420.810120831355     IErMin= 5 ErrMin= 1.18D-04
 ErrMax= 1.18D-04  0.00D+00 EMaxC= 1.00D-01 BMatC= 2.19D-06 BMatP= 3.03D-05
 IDIUse=3 WtCom= 9.99D-01 WtEn= 1.18D-03
 Coeff-Com: -0.584D-02 0.529D-01 0.146D+00 0.306D+00 0.501D+00
 Coeff-En:   0.000D+00 0.000D+00 0.000D+00 0.000D+00 0.100D+01
 Coeff:     -0.583D-02 0.528D-01 0.145D+00 0.306D+00 0.502D+00
 Gap=     0.214 Goal=   None    Shift=    0.000
 RMSDP=1.18D-05 MaxDP=3.10D-04 DE=-2.33D-05 OVMax= 6.44D-04

 Cycle   6  Pass 0  IDiag  1:
 RMSU=  7.86D-06    CP:  9.97D-01  1.09D+00  6.80D-01  7.01D-01  6.16D-01
 E= -420.810122365169     Delta-E=       -0.000001533814 Rises=F Damp=F
 DIIS: error= 4.03D-05 at cycle   6 NSaved=   6.
 NSaved= 6 IEnMin= 6 EnMin= -420.810122365169     IErMin= 6 ErrMin= 4.03D-05
 ErrMax= 4.03D-05  0.00D+00 EMaxC= 1.00D-01 BMatC= 3.49D-07 BMatP= 2.19D-06
 IDIUse=1 WtCom= 1.00D+00 WtEn= 0.00D+00
 Coeff-Com:  0.560D-03-0.115D-01 0.578D-02 0.438D-01 0.303D+00 0.658D+00
 Coeff:      0.560D-03-0.115D-01 0.578D-02 0.438D-01 0.303D+00 0.658D+00
 Gap=     0.214 Goal=   None    Shift=    0.000
 RMSDP=4.67D-06 MaxDP=1.05D-04 DE=-1.53D-06 OVMax= 2.34D-04

 Initial convergence to 1.0D-05 achieved.  Increase integral accuracy.
 Cycle   7  Pass 1  IDiag  1:
 E= -420.810135134970     Delta-E=       -0.000012769800 Rises=F Damp=F
 DIIS: error= 2.03D-05 at cycle   1 NSaved=   1.
 NSaved= 1 IEnMin= 1 EnMin= -420.810135134970     IErMin= 1 ErrMin= 2.03D-05
 ErrMax= 2.03D-05  0.00D+00 EMaxC= 1.00D-01 BMatC= 5.24D-08 BMatP= 5.24D-08
 IDIUse=1 WtCom= 1.00D+00 WtEn= 0.00D+00
 Coeff-Com:  0.100D+01
 Coeff:      0.100D+01
 Gap=     0.214 Goal=   None    Shift=    0.000
 RMSDP=4.67D-06 MaxDP=1.05D-04 DE=-1.28D-05 OVMax= 2.30D-04

 Cycle   8  Pass 1  IDiag  1:
 RMSU=  6.19D-06    CP:  1.00D+00
 E= -420.810135042373     Delta-E=        0.000000092597 Rises=F Damp=F
 DIIS: error= 3.99D-05 at cycle   2 NSaved=   2.
 NSaved= 2 IEnMin= 1 EnMin= -420.810135134970     IErMin= 1 ErrMin= 2.03D-05
 ErrMax= 3.99D-05  0.00D+00 EMaxC= 1.00D-01 BMatC= 1.32D-07 BMatP= 5.24D-08
 IDIUse=1 WtCom= 1.00D+00 WtEn= 0.00D+00
 Coeff-Com:  0.624D+00 0.376D+00
 Coeff:      0.624D+00 0.376D+00
 Gap=     0.214 Goal=   None    Shift=    0.000
 RMSDP=2.87D-06 MaxDP=6.09D-05 DE= 9.26D-08 OVMax= 1.74D-04

 Cycle   9  Pass 1  IDiag  1:
 RMSU=  2.22D-06    CP:  1.00D+00  7.08D-01
 E= -420.810135183575     Delta-E=       -0.000000141202 Rises=F Damp=F
 DIIS: error= 4.88D-06 at cycle   3 NSaved=   3.
 NSaved= 3 IEnMin= 3 EnMin= -420.810135183575     IErMin= 3 ErrMin= 4.88D-06
 ErrMax= 4.88D-06  0.00D+00 EMaxC= 1.00D-01 BMatC= 3.73D-09 BMatP= 5.24D-08
 IDIUse=1 WtCom= 1.00D+00 WtEn= 0.00D+00
 Coeff-Com:  0.130D+00 0.163D+00 0.708D+00
 Coeff:      0.130D+00 0.163D+00 0.708D+00
 Gap=     0.214 Goal=   None    Shift=    0.000
 RMSDP=5.72D-07 MaxDP=1.52D-05 DE=-1.41D-07 OVMax= 2.90D-05

 Cycle  10  Pass 1  IDiag  1:
 RMSU=  4.62D-07    CP:  1.00D+00  7.41D-01  8.79D-01
 E= -420.810135185673     Delta-E=       -0.000000002098 Rises=F Damp=F
 DIIS: error= 2.99D-06 at cycle   4 NSaved=   4.
 NSaved= 4 IEnMin= 4 EnMin= -420.810135185673     IErMin= 4 ErrMin= 2.99D-06
 ErrMax= 2.99D-06  0.00D+00 EMaxC= 1.00D-01 BMatC= 1.80D-09 BMatP= 3.73D-09
 IDIUse=1 WtCom= 1.00D+00 WtEn= 0.00D+00
 Coeff-Com:  0.949D-02 0.640D-01 0.481D+00 0.446D+00
 Coeff:      0.949D-02 0.640D-01 0.481D+00 0.446D+00
 Gap=     0.214 Goal=   None    Shift=    0.000
 RMSDP=2.73D-07 MaxDP=8.52D-06 DE=-2.10D-09 OVMax= 1.54D-05

 Cycle  11  Pass 1  IDiag  1:
 RMSU=  1.34D-07    CP:  1.00D+00  7.46D-01  8.90D-01  4.94D-01
 E= -420.810135187075     Delta-E=       -0.000000001402 Rises=F Damp=F
 DIIS: error= 5.61D-07 at cycle   5 NSaved=   5.
 NSaved= 5 IEnMin= 5 EnMin= -420.810135187075     IErMin= 5 ErrMin= 5.61D-07
 ErrMax= 5.61D-07  0.00D+00 EMaxC= 1.00D-01 BMatC= 8.62D-11 BMatP= 1.80D-09
 IDIUse=1 WtCom= 1.00D+00 WtEn= 0.00D+00
 Coeff-Com: -0.299D-02 0.274D-01 0.240D+00 0.267D+00 0.469D+00
 Coeff:     -0.299D-02 0.274D-01 0.240D+00 0.267D+00 0.469D+00
 Gap=     0.214 Goal=   None    Shift=    0.000
 RMSDP=7.28D-08 MaxDP=1.74D-06 DE=-1.40D-09 OVMax= 2.67D-06

 Cycle  12  Pass 1  IDiag  1:
 RMSU=  3.56D-08    CP:  1.00D+00  7.45D-01  8.95D-01  5.07D-01  5.36D-01
 E= -420.810135187152     Delta-E=       -0.000000000077 Rises=F Damp=F
 DIIS: error= 1.44D-07 at cycle   6 NSaved=   6.
 NSaved= 6 IEnMin= 6 EnMin= -420.810135187152     IErMin= 6 ErrMin= 1.44D-07
 ErrMax= 1.44D-07  0.00D+00 EMaxC= 1.00D-01 BMatC= 4.48D-12 BMatP= 8.62D-11
 IDIUse=1 WtCom= 1.00D+00 WtEn= 0.00D+00
 Coeff-Com: -0.237D-02 0.113D-01 0.104D+00 0.121D+00 0.258D+00 0.508D+00
 Coeff:     -0.237D-02 0.113D-01 0.104D+00 0.121D+00 0.258D+00 0.508D+00
 Gap=     0.214 Goal=   None    Shift=    0.000
 RMSDP=1.59D-08 MaxDP=4.50D-07 DE=-7.69D-11 OVMax= 7.65D-07

 Cycle  13  Pass 1  IDiag  1:
 RMSU=  1.27D-08    CP:  1.00D+00  7.46D-01  8.94D-01  5.09D-01  5.63D-01
                    CP:  7.65D-01
 E= -420.810135187156     Delta-E=       -0.000000000004 Rises=F Damp=F
 DIIS: error= 1.95D-08 at cycle   7 NSaved=   7.
 NSaved= 7 IEnMin= 7 EnMin= -420.810135187156     IErMin= 7 ErrMin= 1.95D-08
 ErrMax= 1.95D-08  0.00D+00 EMaxC= 1.00D-01 BMatC= 1.11D-13 BMatP= 4.48D-12
 IDIUse=1 WtCom= 1.00D+00 WtEn= 0.00D+00
 Coeff-Com: -0.124D-03-0.909D-03-0.743D-02-0.750D-02-0.890D-02 0.107D+00
 Coeff-Com:  0.918D+00
 Coeff:     -0.124D-03-0.909D-03-0.743D-02-0.750D-02-0.890D-02 0.107D+00
 Coeff:      0.918D+00
 Gap=     0.214 Goal=   None    Shift=    0.000
 RMSDP=4.44D-09 MaxDP=9.65D-08 DE=-3.64D-12 OVMax= 2.79D-07

 SCF Done:  E(RB3LYP) =  -420.810135187     A.U. after   13 cycles
            NFock= 13  Conv=0.44D-08     -V/T= 2.0093
 KE= 4.169245978790D+02 PE=-1.788065110142D+03 EE= 5.465972351903D+02
 Leave Link  502 at Mon Sep 21 10:05:57 2026, MaxMem=  3758096384 cpu:              38.5 elap:               4.9
 (Enter /opt/software/gaussian/16RevA.03/g16/l701.exe)
 ... and contract with generalized density number  0.
 Compute integral first derivatives.
 Leave Link  701 at Mon Sep 21 10:05:57 2026, MaxMem=  3758096384 cpu:               0.6 elap:               0.1
 (Enter /opt/software/gaussian/16RevA.03/g16/l702.exe)
 L702 exits ... SP integral derivatives will be done elsewhere.
 Leave Link  702 at Mon Sep 21 10:05:57 2026, MaxMem=  3758096384 cpu:               0.1 elap:               0.0
 (Enter /opt/software/gaussian/16RevA.03/g16/l703.exe)
 Integral derivatives from FoFJK, PRISM(SPDF).
 Compute integral first derivatives, UseDBF=F ICtDFT=           0.
 Calling FoFJK, ICntrl=      2127 FMM=F ISym2X=0 I1Cent= 0 IOpClX= 0 NMat=1 NMatS=1 NMatT=0.
 FoFJK:  IHMeth= 1 ICntrl=    2127 DoSepK=F KAlg= 0 I1Cent=           0 FoldK=F
 IRaf=         0 NMat=       1 IRICut=       1 DoRegI=T DoRafI=F ISym2E= 0 IDoP0=0 IntGTp=1.
 FoFCou: FMM=F IPFlag=           0 FMFlag=      100000 FMFlg1=         800
         NFxFlg=           0 DoJE=F BraDBF=F KetDBF=F FulRan=T
         wScrn=  0.000000 ICntrl=      2127 IOpCl=  0 I1Cent=           0 NGrid=           0
         NMat0=    1 NMatS0=      1 NMatT0=    0 NMatD0=    1 NMtDS0=    0 NMtDT0=    0
 Symmetry not used in FoFCou.
 Leave Link  703 at Mon Sep 21 10:05:59 2026, MaxMem=  3758096384 cpu:               9.4 elap:               1.2
 (Enter /opt/software/gaussian/16RevA.03/g16/l716.exe)
 Dipole        =-1.57457362D+00 8.93576299D-01 4.46600181D-01
 ***** Axes restored to original set *****
 -------------------------------------------------------------------
 Center     Atomic                   Forces (Hartrees/Bohr)
 Number     Number              X              Y              Z
 -------------------------------------------------------------------
      1        6           0.000306383    0.000719802   -0.000584528
      2        6           0.000079672   -0.000734160    0.000041053
      3        6          -0.000587218    0.000500103    0.000175924
      4        1          -0.000081098    0.000018070    0.000039510
      5        6          -0.001018466    0.000419445    0.000109640
      6        6          -0.000355596    0.000308235   -0.000163197
      7        1          -0.000338608    0.000017410   -0.000059693
      8        6          -0.001786358    0.001006897    0.000368944
      9        6           0.002823270   -0.000871678    0.001084316
     10        1          -0.000060984   -0.000054456    0.000031234
     11        1          -0.000095159   -0.000035847   -0.000026255
     12        1           0.000083244    0.002321231   -0.002007248
     13        8          -0.000173490   -0.000641415    0.000536007
     14        1          -0.000110976   -0.002295816    0.000714473
     15        8           0.001315381   -0.000677821   -0.000260180
 -------------------------------------------------------------------
 Cartesian Forces:  Max     0.002823270 RMS     0.000896869
 Leave Link  716 at Mon Sep 21 10:05:59 2026, MaxMem=  3758096384 cpu:               0.2 elap:               0.0
 (Enter /opt/software/gaussian/16RevA.03/g16/l103.exe)

 GradGradGradGradGradGradGradGradGradGradGradGradGradGradGradGradGradGrad
 Berny optimization.
 Using GEDIIS/GDIIS optimizer.
 FormGI is forming the generalized inverse of G from B-inverse, IUseBI=4.
 Internal  Forces:  Max     0.005871493 RMS     0.001450551
 Search for a local minimum.
 Step number   9 out of a maximum of   77
 All quantities printed in internal units (Hartrees-Bohrs-Radians)
 RMS Force = .14506D-02 SwitMx=.10000D-02 MixMth= 1
 Mixed Optimization -- RFO/linear search
 Update second derivatives using D2CorX and points    7    9    8
 DE=  4.18D-05 DEPred=-1.11D-04 R=-3.78D-01
 Trust test=-3.78D-01 RLast= 3.25D-01 DXMaxT set to 1.44D-01
 ITU= -1  0  1  1  1 -1  1  1  0
 Use linear search instead of GDIIS.
     Eigenvalues ---    0.00497   0.01582   0.01860   0.02104   0.02130
     Eigenvalues ---    0.02156   0.02177   0.02182   0.02186   0.02192
     Eigenvalues ---    0.02437   0.06142   0.12519   0.15579   0.15860
     Eigenvalues ---    0.15999   0.16043   0.17037   0.18273   0.21691
     Eigenvalues ---    0.22029   0.22978   0.23372   0.28366   0.31023
     Eigenvalues ---    0.35074   0.35106   0.35109   0.35131   0.35340
     Eigenvalues ---    0.41350   0.42579   0.42803   0.46379   0.46630
     Eigenvalues ---    0.46785   0.50137   0.52916   0.98308
 RFO step:  Lambda=-1.65377327D-03 EMin= 4.97015290D-03
 Quartic linear search produced a step of -0.53570.
 Iteration  1 RMS(Cart)=  0.10338911 RMS(Int)=  0.00569701
 Iteration  2 RMS(Cart)=  0.00796291 RMS(Int)=  0.00018219
 Iteration  3 RMS(Cart)=  0.00005413 RMS(Int)=  0.00017827
 Iteration  4 RMS(Cart)=  0.00000001 RMS(Int)=  0.00017827
 ITry= 1 IFail=0 DXMaxC= 5.01D-01 DCOld= 1.00D+10 DXMaxT= 1.44D-01 DXLimC= 3.00D+00 Rises=F
 Variable       Old X    -DE/DX   Delta X   Delta X   Delta X     New X
                                 (Linear)    (Quad)   (Total)
    R1        2.62938   0.00039   0.00056  -0.00249  -0.00199   2.62738
    R2        2.65076  -0.00020  -0.00012   0.00076   0.00063   2.65138
    R3        2.04996   0.00018  -0.00053   0.00319   0.00267   2.05263
    R4        2.05270   0.00008  -0.00001   0.00042   0.00041   2.05311
    R5        2.64249   0.00000  -0.00095   0.00309   0.00209   2.64458
    R6        2.63631   0.00069   0.00035  -0.00065  -0.00028   2.63603
    R7        2.63677   0.00014  -0.00057   0.00163   0.00112   2.63790
    R8        2.05268   0.00002  -0.00010   0.00060   0.00050   2.05319
    R9        2.83802  -0.00270   0.00376  -0.02406  -0.02031   2.81772
   R10        2.64885  -0.00100   0.00040  -0.00062  -0.00017   2.64868
   R11        2.05309   0.00008  -0.00026   0.00211   0.00184   2.05494
   R12        2.28368  -0.00028  -0.00035   0.00378   0.00342   2.28710
   R13        2.57058   0.00076  -0.00165   0.00957   0.00791   2.57850
   R14        2.05707  -0.00013  -0.00023   0.00154   0.00131   2.05838
   R15        1.83303   0.00157  -0.00166   0.01117   0.00951   1.84254
    A1        2.10250  -0.00112   0.00073  -0.00388  -0.00323   2.09927
    A2        2.11632   0.00027   0.00167  -0.00965  -0.00797   2.10835
    A3        2.06435   0.00085  -0.00241   0.01357   0.01117   2.07552
    A4        2.09173   0.00003  -0.00065   0.00374   0.00314   2.09487
    A5        2.09572  -0.00009   0.00041  -0.00291  -0.00259   2.09313
    A6        2.09573   0.00006   0.00024  -0.00082  -0.00054   2.09519
    A7        2.09474  -0.00004  -0.00015   0.00090   0.00083   2.09557
    A8        2.09960  -0.00006  -0.00007  -0.00136  -0.00153   2.09808
    A9        2.08877   0.00010   0.00023   0.00063   0.00077   2.08953
   A10        2.04359   0.00341  -0.00352   0.01678   0.01305   2.05664
   A11        2.07840   0.00195  -0.00172   0.01077   0.00894   2.08735
   A12        2.16074  -0.00535   0.00531  -0.02664  -0.02154   2.13920
   A13        2.09238   0.00034  -0.00055   0.00454   0.00396   2.09634
   A14        2.09614  -0.00024   0.00077  -0.00421  -0.00347   2.09267
   A15        2.09460  -0.00010  -0.00021  -0.00019  -0.00042   2.09418
   A16        2.14954   0.00223   0.00109  -0.01395  -0.01301   2.13653
   A17        2.04846  -0.00587   0.00895  -0.05312  -0.04432   2.00414
   A18        2.08514   0.00365  -0.01005   0.06738   0.05718   2.14232
   A19        2.10210  -0.00103   0.00137  -0.00850  -0.00742   2.09468
   A20        2.06174   0.00299  -0.00363   0.02172   0.01760   2.07934
   A21        2.11716  -0.00192   0.00274  -0.01033  -0.00809   2.10907
   A22        1.92746  -0.00207  -0.00115   0.02131   0.02016   1.94762
    D1       -3.12720  -0.00014  -0.00130  -0.01252  -0.01380  -3.14099
    D2        0.01939  -0.00014  -0.00202  -0.01421  -0.01626   0.00312
    D3        0.01079   0.00002  -0.00229   0.00143  -0.00091   0.00989
    D4       -3.12581   0.00002  -0.00302  -0.00027  -0.00338  -3.12919
    D5        3.13758   0.00013   0.00077   0.00191   0.00245   3.14004
    D6       -0.03533   0.00034   0.00313   0.03209   0.03544   0.00011
    D7       -0.00051  -0.00003   0.00172  -0.01158  -0.01015  -0.01067
    D8        3.10976   0.00018   0.00408   0.01860   0.02283   3.13259
    D9        0.00736  -0.00010  -0.00081  -0.00622  -0.00701   0.00035
   D10        3.13636   0.00006   0.00014   0.00681   0.00699  -3.13983
   D11       -3.12923  -0.00010  -0.00153  -0.00793  -0.00949  -3.13873
   D12       -0.00023   0.00006  -0.00059   0.00510   0.00451   0.00428
   D13       -0.01769   0.00008   0.00254   0.00800   0.01062  -0.00707
   D14        3.13648  -0.00008   0.00159  -0.00498  -0.00337   3.13311
   D15        3.11099   0.00031   0.00327   0.02390   0.02725   3.13823
   D16       -0.01803   0.00015   0.00233   0.01091   0.01325  -0.00478
   D17        0.00138   0.00016  -0.00144   0.01050   0.00892   0.01030
   D18        3.07286   0.00079   0.00732   0.05648   0.06406   3.13692
   D19       -3.12738  -0.00006  -0.00217  -0.00528  -0.00760  -3.13498
   D20       -0.05589   0.00057   0.00659   0.04070   0.04753  -0.00836
   D21        0.43764  -0.00017  -0.08194  -0.03513  -0.11740   0.32024
   D22       -2.69324  -0.00127  -0.08009  -0.06919  -0.14917  -2.84241
   D23       -2.67101  -0.00054  -0.08429  -0.06766  -0.15206  -2.82307
   D24        0.48129  -0.00165  -0.08244  -0.10172  -0.18383   0.29746
   D25        0.02494  -0.00035  -0.00139  -0.03029  -0.03175  -0.00682
   D26       -3.04429  -0.00120  -0.01023  -0.07904  -0.08889  -3.13318
   D27        3.13297   0.00005   0.00098   0.00294   0.00355   3.13652
   D28        0.06374  -0.00080  -0.00786  -0.04582  -0.05358   0.01016
   D29        0.21771  -0.00070  -0.03751  -0.05131  -0.08839   0.12932
   D30       -2.91358  -0.00175  -0.03581  -0.08357  -0.11982  -3.03340
         Item               Value     Threshold  Converged?
 Maximum Force            0.005871     0.000450     NO 
 RMS     Force            0.001451     0.000300     NO 
 Maximum Displacement     0.501150     0.001800     NO 
 RMS     Displacement     0.104424     0.001200     NO 
 Predicted change in Energy=-9.909300D-04
 GradGradGradGradGradGradGradGradGradGradGradGradGradGradGradGradGradGrad

 Leave Link  103 at Mon Sep 21 10:05:59 2026, MaxMem=  3758096384 cpu:               0.7 elap:               0.1
 (Enter /opt/software/gaussian/16RevA.03/g16/l202.exe)
                          Input orientation:                          
 ---------------------------------------------------------------------
 Center     Atomic      Atomic             Coordinates (Angstroms)
 Number     Number       Type             X           Y           Z
 ---------------------------------------------------------------------
      1          6           0       -0.852777    2.016833   -0.006936
      2          6           0       -1.511361    0.793169    0.037662
      3          6           0        0.620334   -0.354986    0.061826
      4          1           0       -2.597272    0.760264    0.048264
      5          6           0        0.549354    2.065477   -0.021550
      6          6           0       -0.773958   -0.395750    0.071927
      7          1           0       -1.410861    2.948578   -0.022339
      8          6           0        1.199017    3.406635   -0.071809
      9          6           0        1.283768    0.872059    0.008963
     10          1           0        1.194464   -1.276926    0.091540
     11          1           0       -1.289499   -1.352625    0.105145
     12          1           0        2.372917    0.886416    0.006217
     13          8           0        0.611824    4.423350    0.221926
     14          1           0        2.791227    2.507615   -0.741292
     15          8           0        2.510334    3.394301   -0.448776
 ---------------------------------------------------------------------
                    Distance matrix (angstroms):
                    1          2          3          4          5
     1  C    0.000000
     2  C    1.390351   0.000000
     3  C    2.792904   2.421357   0.000000
     4  H    2.150645   1.086461   3.405430   0.000000
     5  C    1.403051   2.422564   2.422938   3.407302   0.000000
     6  C    2.415158   1.399452   1.394924   2.159028   2.795984
     7  H    1.086206   2.158585   3.878965   2.490236   2.149956
     8  C    2.479036   3.766741   3.808218   4.629202   1.491071
     9  C    2.423960   2.796389   1.395915   3.882848   1.401620
    10  H    3.879400   3.407299   1.086500   4.304565   3.405968
    11  H    3.399490   2.158288   2.155139   2.485519   3.883408
    12  H    3.418058   3.885524   2.148422   4.971968   2.171713
    13  O    2.826439   4.209523   4.781025   4.873054   2.371234
    14  H    3.749521   4.696632   3.681339   5.719489   2.395727
    15  O    3.661032   4.814202   4.229653   5.768261   2.407019
                    6          7          8          9         10
     6  C    0.000000
     7  H    3.405739   0.000000
     8  C    4.286190   2.650231   0.000000
     9  C    2.417755   3.402048   2.537278   0.000000
    10  H    2.156743   4.965438   4.686412   2.152425   0.000000
    11  H    1.087427   4.304803   5.373508   3.402966   2.485154
    12  H    3.398689   4.309327   2.781301   1.089248   2.464971
    13  O    5.016634   2.515129   1.210283   3.620570   5.731459
    14  H    4.669196   4.285893   1.947197   2.347415   4.191183
    15  O    5.042042   3.969419   1.364481   2.841777   4.883014
                   11         12         13         14         15
    11  H    0.000000
    12  H    4.293761   0.000000
    13  O    6.081986   3.957004   0.000000
    14  H    5.680690   1.833587   3.057389   0.000000
    15  O    6.105643   2.552527   2.261221   0.975028   0.000000
 Stoichiometry    C7H6O2
 Framework group  C1[X(C7H6O2)]
 Deg. of freedom    39
 Full point group                 C1      NOp   1
 RotChk:  IX=0 Diff= 1.57D-02
 Largest Abelian subgroup         C1      NOp   1
 Largest concise Abelian subgroup C1      NOp   1
                         Standard orientation:                         
 ---------------------------------------------------------------------
 Center     Atomic      Atomic             Coordinates (Angstroms)
 Number     Number       Type             X           Y           Z
 ---------------------------------------------------------------------
      1          6           0       -0.487996   -1.222607    0.105487
      2          6           0       -1.877900   -1.189932    0.118671
      3          6           0       -1.825033    1.219338   -0.117106
      4          1           0       -2.442566   -2.113334    0.212906
      5          6           0        0.246491   -0.033277   -0.015239
      6          6           0       -2.548610    0.033273    0.007393
      7          1           0        0.046907   -2.165084    0.179383
      8          6           0        1.734321   -0.131351   -0.021342
      9          6           0       -0.429439    1.189895   -0.122515
     10          1           0       -2.344126    2.169595   -0.206748
     11          1           0       -3.635678    0.058496    0.019405
     12          1           0        0.120367    2.124602   -0.224975
     13          8           0        2.315222   -1.167779   -0.251898
     14          1           0        1.767756    1.748118    0.486650
     15          8           0        2.386821    1.040976    0.227058
 ---------------------------------------------------------------------
 Rotational constants (GHZ):           3.7831915           1.2337828           0.9404020
 Leave Link  202 at Mon Sep 21 10:05:59 2026, MaxMem=  3758096384 cpu:               0.3 elap:               0.1
 (Enter /opt/software/gaussian/16RevA.03/g16/l301.exe)
 Standard basis: 6-31G(d) (6D, 7F)
 Ernie: Thresh=  0.10000D-02 Tol=  0.10000D-05 Strict=F.
 There are   147 symmetry adapted cartesian basis functions of A   symmetry.
 There are   147 symmetry adapted basis functions of A   symmetry.
   147 basis functions,   276 primitive gaussians,   147 cartesian basis functions
    32 alpha electrons       32 beta electrons
       nuclear repulsion energy       404.8757437357 Hartrees.
 IExCor=  402 DFT=T Ex+Corr=B3LYP ExCW=0 ScaHFX=  0.200000
 ScaDFX=  0.800000  0.720000  1.000000  0.810000 ScalE2=  1.000000  1.000000
 IRadAn=      5 IRanWt=     -1 IRanGd=            0 ICorTp=0 IEmpDi=  4
 NAtoms=   15 NActive=   15 NUniq=   15 SFac= 1.00D+00 NAtFMM=   60 NAOKFM=F Big=F
 Integral buffers will be    131072 words long.
 Raffenetti 2 integral format.
 Two-electron integral symmetry is turned on.
 Leave Link  301 at Mon Sep 21 10:05:59 2026, MaxMem=  3758096384 cpu:               0.5 elap:               0.1
 (Enter /opt/software/gaussian/16RevA.03/g16/l302.exe)
 NPDir=0 NMtPBC=     1 NCelOv=     1 NCel=       1 NClECP=     1 NCelD=      1
         NCelK=      1 NCelE2=     1 NClLst=     1 CellRange=     0.0.
 One-electron integrals computed using PRISM.
 One-electron integral symmetry used in STVInt
 NBasis=   147 RedAO= T EigKep=  4.74D-04  NBF=   147
 NBsUse=   147 1.00D-06 EigRej= -1.00D+00 NBFU=   147
 Precomputing XC quadrature grid using
 IXCGrd= 4 IRadAn=           5 IRanWt=          -1 IRanGd=           0 AccXCQ= 0.00D+00.
 Generated NRdTot=       0 NPtTot=           0 NUsed=           0 NTot=          32
 NSgBfM=   147   147   147   147   147 MxSgAt=    15 MxSgA2=    15.
 Leave Link  302 at Mon Sep 21 10:05:59 2026, MaxMem=  3758096384 cpu:               1.0 elap:               0.1
 (Enter /opt/software/gaussian/16RevA.03/g16/l303.exe)
 DipDrv:  MaxL=1.
 Leave Link  303 at Mon Sep 21 10:05:59 2026, MaxMem=  3758096384 cpu:               0.2 elap:               0.0
 (Enter /opt/software/gaussian/16RevA.03/g16/l401.exe)
 Lowest energy guess from the checkpoint file:  "job.chk"
 B after Tr=    -0.000000   -0.000000    0.000000
         Rot=    0.999997    0.001662    0.001334    0.000685 Ang=   0.26 deg.
 Guess basis will be translated and rotated to current coordinates.
 B after Tr=    -0.000000   -0.000000   -0.000000
         Rot=    0.999990    0.003982    0.001236    0.001303 Ang=   0.50 deg.
 Guess basis will be translated and rotated to current coordinates.
 CkInt1:  FT= 4.64D-01
 Max alpha theta=  4.178 degrees.
 JPrj=2 DoOrth=T DoCkMO=T.
 Leave Link  401 at Mon Sep 21 10:06:00 2026, MaxMem=  3758096384 cpu:               1.2 elap:               0.2
 (Enter /opt/software/gaussian/16RevA.03/g16/l502.exe)
 Integral symmetry usage will be decided dynamically.
 Closed shell SCF:
 Using DIIS extrapolation, IDIIS=  1040.
 NGot=  3758096384 LenX=  3758050306 LenY=  3758028256
 Requested convergence on RMS density matrix=1.00D-08 within 128 cycles.
 Requested convergence on MAX density matrix=1.00D-06.
 Requested convergence on             energy=1.00D-06.
 No special actions if energy rises.
 Fock matrices will be formed incrementally for  20 cycles.
 Integral accuracy reduced to 1.0D-05 until final iterations.

 Cycle   1  Pass 0  IDiag  1:
 FoFJK:  IHMeth= 1 ICntrl=       0 DoSepK=F KAlg= 0 I1Cent=           0 FoldK=F
 IRaf= 950000000 NMat=       1 IRICut=       1 DoRegI=T DoRafI=F ISym2E= 0 IDoP0=0 IntGTp=1.
 FoFCou: FMM=F IPFlag=           0 FMFlag=      100000 FMFlg1=           0
         NFxFlg=           0 DoJE=F BraDBF=F KetDBF=F FulRan=T
         wScrn=  0.000000 ICntrl=         0 IOpCl=  0 I1Cent=           0 NGrid=           0
         NMat0=    1 NMatS0=      1 NMatT0=    0 NMatD0=    1 NMtDS0=    0 NMtDT0=    0
 Symmetry not used in FoFCou.
 E= -420.802267087532    
 DIIS: error= 4.36D-03 at cycle   1 NSaved=   1.
 NSaved= 1 IEnMin= 1 EnMin= -420.802267087532     IErMin= 1 ErrMin= 4.36D-03
 ErrMax= 4.36D-03  0.00D+00 EMaxC= 1.00D-01 BMatC= 3.60D-03 BMatP= 3.60D-03
 IDIUse=3 WtCom= 9.56D-01 WtEn= 4.36D-02
 Coeff-Com:  0.100D+01
 Coeff-En:   0.100D+01
 Coeff:      0.100D+01
 Gap=    10.314 Goal=   None    Shift=    0.000
 GapD=   10.314 DampG=2.000 DampE=1.000 DampFc=2.0000 IDamp=-1.
 RMSDP=8.15D-04 MaxDP=1.76D-02              OVMax= 2.21D-02

 Cycle   2  Pass 0  IDiag  1:
 RMSU=  8.15D-04    CP:  1.00D+00
 E= -420.808990596989     Delta-E=       -0.006723509457 Rises=F Damp=F
 DIIS: error= 6.75D-04 at cycle   2 NSaved=   2.
 NSaved= 2 IEnMin= 2 EnMin= -420.808990596989     IErMin= 2 ErrMin= 6.75D-04
 ErrMax= 6.75D-04  0.00D+00 EMaxC= 1.00D-01 BMatC= 1.16D-04 BMatP= 3.60D-03
 IDIUse=3 WtCom= 9.93D-01 WtEn= 6.75D-03
 Coeff-Com: -0.210D-01 0.102D+01
 Coeff-En:   0.000D+00 0.100D+01
 Coeff:     -0.209D-01 0.102D+01
 Gap=     0.214 Goal=   None    Shift=    0.000
 RMSDP=1.67D-04 MaxDP=4.57D-03 DE=-6.72D-03 OVMax= 6.26D-03

 Cycle   3  Pass 0  IDiag  1:
 RMSU=  1.66D-04    CP:  1.00D+00  1.03D+00
 E= -420.808964443424     Delta-E=        0.000026153565 Rises=F Damp=F
 DIIS: error= 8.51D-04 at cycle   3 NSaved=   3.
 NSaved= 3 IEnMin= 2 EnMin= -420.808990596989     IErMin= 2 ErrMin= 6.75D-04
 ErrMax= 8.51D-04  0.00D+00 EMaxC= 1.00D-01 BMatC= 2.23D-04 BMatP= 1.16D-04
 IDIUse=3 WtCom= 2.55D-01 WtEn= 7.45D-01
 Coeff-Com: -0.410D-01 0.621D+00 0.420D+00
 Coeff-En:   0.000D+00 0.552D+00 0.448D+00
 Coeff:     -0.105D-01 0.570D+00 0.441D+00
 Gap=     0.214 Goal=   None    Shift=    0.000
 RMSDP=1.08D-04 MaxDP=3.61D-03 DE= 2.62D-05 OVMax= 5.95D-03

 Cycle   4  Pass 0  IDiag  1:
 RMSU=  6.26D-05    CP:  1.00D+00  1.05D+00  4.83D-01
 E= -420.809116133635     Delta-E=       -0.000151690211 Rises=F Damp=F
 DIIS: error= 3.55D-04 at cycle   4 NSaved=   4.
 NSaved= 4 IEnMin= 4 EnMin= -420.809116133635     IErMin= 4 ErrMin= 3.55D-04
 ErrMax= 3.55D-04  0.00D+00 EMaxC= 1.00D-01 BMatC= 2.44D-05 BMatP= 1.16D-04
 IDIUse=3 WtCom= 9.96D-01 WtEn= 3.55D-03
 Coeff-Com: -0.191D-01 0.205D+00 0.280D+00 0.534D+00
 Coeff-En:   0.000D+00 0.000D+00 0.100D+00 0.900D+00
 Coeff:     -0.191D-01 0.205D+00 0.279D+00 0.536D+00
 Gap=     0.214 Goal=   None    Shift=    0.000
 RMSDP=3.52D-05 MaxDP=1.26D-03 DE=-1.52D-04 OVMax= 2.04D-03

 Cycle   5  Pass 0  IDiag  1:
 RMSU=  2.01D-05    CP:  1.00D+00  1.06D+00  5.79D-01  6.22D-01
 E= -420.809134271972     Delta-E=       -0.000018138337 Rises=F Damp=F
 DIIS: error= 1.23D-04 at cycle   5 NSaved=   5.
 NSaved= 5 IEnMin= 5 EnMin= -420.809134271972     IErMin= 5 ErrMin= 1.23D-04
 ErrMax= 1.23D-04  0.00D+00 EMaxC= 1.00D-01 BMatC= 2.09D-06 BMatP= 2.44D-05
 IDIUse=3 WtCom= 9.99D-01 WtEn= 1.23D-03
 Coeff-Com: -0.797D-02 0.712D-01 0.135D+00 0.333D+00 0.469D+00
 Coeff-En:   0.000D+00 0.000D+00 0.000D+00 0.000D+00 0.100D+01
 Coeff:     -0.796D-02 0.711D-01 0.134D+00 0.333D+00 0.470D+00
 Gap=     0.214 Goal=   None    Shift=    0.000
 RMSDP=1.02D-05 MaxDP=3.46D-04 DE=-1.81D-05 OVMax= 3.91D-04

 Cycle   6  Pass 0  IDiag  1:
 RMSU=  6.64D-06    CP:  1.00D+00  1.06D+00  5.86D-01  6.90D-01  6.84D-01
 E= -420.809135769968     Delta-E=       -0.000001497997 Rises=F Damp=F
 DIIS: error= 2.83D-05 at cycle   6 NSaved=   6.
 NSaved= 6 IEnMin= 6 EnMin= -420.809135769968     IErMin= 6 ErrMin= 2.83D-05
 ErrMax= 2.83D-05  0.00D+00 EMaxC= 1.00D-01 BMatC= 1.43D-07 BMatP= 2.09D-06
 IDIUse=1 WtCom= 1.00D+00 WtEn= 0.00D+00
 Coeff-Com: -0.666D-03-0.170D-02 0.166D-01 0.696D-01 0.233D+00 0.683D+00
 Coeff:     -0.666D-03-0.170D-02 0.166D-01 0.696D-01 0.233D+00 0.683D+00
 Gap=     0.214 Goal=   None    Shift=    0.000
 RMSDP=3.46D-06 MaxDP=6.08D-05 DE=-1.50D-06 OVMax= 1.60D-04

 Initial convergence to 1.0D-05 achieved.  Increase integral accuracy.
 Cycle   7  Pass 1  IDiag  1:
 E= -420.809132879297     Delta-E=        0.000002890671 Rises=F Damp=F
 DIIS: error= 1.49D-05 at cycle   1 NSaved=   1.
 NSaved= 1 IEnMin= 1 EnMin= -420.809132879297     IErMin= 1 ErrMin= 1.49D-05
 ErrMax= 1.49D-05  0.00D+00 EMaxC= 1.00D-01 BMatC= 4.72D-08 BMatP= 4.72D-08
 IDIUse=1 WtCom= 1.00D+00 WtEn= 0.00D+00
 Coeff-Com:  0.100D+01
 Coeff:      0.100D+01
 Gap=     0.214 Goal=   None    Shift=    0.000
 RMSDP=3.46D-06 MaxDP=6.08D-05 DE= 2.89D-06 OVMax= 2.05D-04

 Cycle   8  Pass 1  IDiag  1:
 RMSU=  6.35D-06    CP:  1.00D+00
 E= -420.809132799561     Delta-E=        0.000000079736 Rises=F Damp=F
 DIIS: error= 3.07D-05 at cycle   2 NSaved=   2.
 NSaved= 2 IEnMin= 1 EnMin= -420.809132879297     IErMin= 1 ErrMin= 1.49D-05
 ErrMax= 3.07D-05  0.00D+00 EMaxC= 1.00D-01 BMatC= 1.13D-07 BMatP= 4.72D-08
 IDIUse=1 WtCom= 1.00D+00 WtEn= 0.00D+00
 Coeff-Com:  0.620D+00 0.380D+00
 Coeff:      0.620D+00 0.380D+00
 Gap=     0.214 Goal=   None    Shift=    0.000
 RMSDP=2.77D-06 MaxDP=5.89D-05 DE= 7.97D-08 OVMax= 1.54D-04

 Cycle   9  Pass 1  IDiag  1:
 RMSU=  2.32D-06    CP:  1.00D+00  7.62D-01
 E= -420.809132921890     Delta-E=       -0.000000122330 Rises=F Damp=F
 DIIS: error= 4.91D-06 at cycle   3 NSaved=   3.
 NSaved= 3 IEnMin= 3 EnMin= -420.809132921890     IErMin= 3 ErrMin= 4.91D-06
 ErrMax= 4.91D-06  0.00D+00 EMaxC= 1.00D-01 BMatC= 4.28D-09 BMatP= 4.72D-08
 IDIUse=1 WtCom= 1.00D+00 WtEn= 0.00D+00
 Coeff-Com:  0.123D+00 0.176D+00 0.701D+00
 Coeff:      0.123D+00 0.176D+00 0.701D+00
 Gap=     0.214 Goal=   None    Shift=    0.000
 RMSDP=6.01D-07 MaxDP=1.91D-05 DE=-1.22D-07 OVMax= 2.66D-05

 Cycle  10  Pass 1  IDiag  1:
 RMSU=  5.02D-07    CP:  1.00D+00  7.91D-01  8.82D-01
 E= -420.809132924646     Delta-E=       -0.000000002756 Rises=F Damp=F
 DIIS: error= 3.58D-06 at cycle   4 NSaved=   4.
 NSaved= 4 IEnMin= 4 EnMin= -420.809132924646     IErMin= 4 ErrMin= 3.58D-06
 ErrMax= 3.58D-06  0.00D+00 EMaxC= 1.00D-01 BMatC= 1.62D-09 BMatP= 4.28D-09
 IDIUse=1 WtCom= 1.00D+00 WtEn= 0.00D+00
 Coeff-Com:  0.721D-02 0.730D-01 0.461D+00 0.459D+00
 Coeff:      0.721D-02 0.730D-01 0.461D+00 0.459D+00
 Gap=     0.214 Goal=   None    Shift=    0.000
 RMSDP=2.84D-07 MaxDP=1.07D-05 DE=-2.76D-09 OVMax= 1.39D-05

 Cycle  11  Pass 1  IDiag  1:
 RMSU=  1.17D-07    CP:  1.00D+00  7.96D-01  8.81D-01  4.89D-01
 E= -420.809132925852     Delta-E=       -0.000000001206 Rises=F Damp=F
 DIIS: error= 5.54D-07 at cycle   5 NSaved=   5.
 NSaved= 5 IEnMin= 5 EnMin= -420.809132925852     IErMin= 5 ErrMin= 5.54D-07
 ErrMax= 5.54D-07  0.00D+00 EMaxC= 1.00D-01 BMatC= 1.10D-10 BMatP= 1.62D-09
 IDIUse=1 WtCom= 1.00D+00 WtEn= 0.00D+00
 Coeff-Com: -0.348D-02 0.344D-01 0.243D+00 0.290D+00 0.437D+00
 Coeff:     -0.348D-02 0.344D-01 0.243D+00 0.290D+00 0.437D+00
 Gap=     0.214 Goal=   None    Shift=    0.000
 RMSDP=6.88D-08 MaxDP=1.64D-06 DE=-1.21D-09 OVMax= 3.11D-06

 Cycle  12  Pass 1  IDiag  1:
 RMSU=  3.65D-08    CP:  1.00D+00  7.96D-01  8.85D-01  5.16D-01  5.28D-01
 E= -420.809132925945     Delta-E=       -0.000000000093 Rises=F Damp=F
 DIIS: error= 8.81D-08 at cycle   6 NSaved=   6.
 NSaved= 6 IEnMin= 6 EnMin= -420.809132925945     IErMin= 6 ErrMin= 8.81D-08
 ErrMax= 8.81D-08  0.00D+00 EMaxC= 1.00D-01 BMatC= 2.71D-12 BMatP= 1.10D-10
 IDIUse=1 WtCom= 1.00D+00 WtEn= 0.00D+00
 Coeff-Com: -0.195D-02 0.121D-01 0.874D-01 0.112D+00 0.206D+00 0.585D+00
 Coeff:     -0.195D-02 0.121D-01 0.874D-01 0.112D+00 0.206D+00 0.585D+00
 Gap=     0.214 Goal=   None    Shift=    0.000
 RMSDP=1.40D-08 MaxDP=3.06D-07 DE=-9.31D-11 OVMax= 5.34D-07

 Cycle  13  Pass 1  IDiag  1:
 RMSU=  1.28D-08    CP:  1.00D+00  7.97D-01  8.85D-01  5.16D-01  5.60D-01
                    CP:  9.21D-01
 E= -420.809132925949     Delta-E=       -0.000000000004 Rises=F Damp=F
 DIIS: error= 3.36D-08 at cycle   7 NSaved=   7.
 NSaved= 7 IEnMin= 7 EnMin= -420.809132925949     IErMin= 7 ErrMin= 3.36D-08
 ErrMax= 3.36D-08  0.00D+00 EMaxC= 1.00D-01 BMatC= 3.87D-13 BMatP= 2.71D-12
 IDIUse=1 WtCom= 1.00D+00 WtEn= 0.00D+00
 Coeff-Com: -0.227D-03-0.119D-02-0.735D-02-0.525D-02 0.849D-02 0.278D+00
 Coeff-Com:  0.727D+00
 Coeff:     -0.227D-03-0.119D-02-0.735D-02-0.525D-02 0.849D-02 0.278D+00
 Coeff:      0.727D+00
 Gap=     0.214 Goal=   None    Shift=    0.000
 RMSDP=6.26D-09 MaxDP=1.10D-07 DE=-3.87D-12 OVMax= 3.54D-07

 SCF Done:  E(RB3LYP) =  -420.809132926     A.U. after   13 cycles
            NFock= 13  Conv=0.63D-08     -V/T= 2.0093
 KE= 4.169134343883D+02 PE=-1.790288454715D+03 EE= 5.476901436646D+02
 Leave Link  502 at Mon Sep 21 10:06:05 2026, MaxMem=  3758096384 cpu:              38.5 elap:               4.9
 (Enter /opt/software/gaussian/16RevA.03/g16/l701.exe)
 ... and contract with generalized density number  0.
 Compute integral first derivatives.
 Leave Link  701 at Mon Sep 21 10:06:05 2026, MaxMem=  3758096384 cpu:               0.6 elap:               0.1
 (Enter /opt/software/gaussian/16RevA.03/g16/l702.exe)
 L702 exits ... SP integral derivatives will be done elsewhere.
 Leave Link  702 at Mon Sep 21 10:06:05 2026, MaxMem=  3758096384 cpu:               0.1 elap:               0.0
 (Enter /opt/software/gaussian/16RevA.03/g16/l703.exe)
 Integral derivatives from FoFJK, PRISM(SPDF).
 Compute integral first derivatives, UseDBF=F ICtDFT=           0.
 Calling FoFJK, ICntrl=      2127 FMM=F ISym2X=0 I1Cent= 0 IOpClX= 0 NMat=1 NMatS=1 NMatT=0.
 FoFJK:  IHMeth= 1 ICntrl=    2127 DoSepK=F KAlg= 0 I1Cent=           0 FoldK=F
 IRaf=         0 NMat=       1 IRICut=       1 DoRegI=T DoRafI=F ISym2E= 0 IDoP0=0 IntGTp=1.
 FoFCou: FMM=F IPFlag=           0 FMFlag=      100000 FMFlg1=         800
         NFxFlg=           0 DoJE=F BraDBF=F KetDBF=F FulRan=T
         wScrn=  0.000000 ICntrl=      2127 IOpCl=  0 I1Cent=           0 NGrid=           0
         NMat0=    1 NMatS0=      1 NMatT0=    0 NMatD0=    1 NMtDS0=    0 NMtDT0=    0
 Symmetry not used in FoFCou.
 Leave Link  703 at Mon Sep 21 10:06:06 2026, MaxMem=  3758096384 cpu:               9.4 elap:               1.2
 (Enter /opt/software/gaussian/16RevA.03/g16/l716.exe)
 Dipole        =-1.60116186D+00 9.15602432D-01 3.00728210D-01
 ***** Axes restored to original set *****
 -------------------------------------------------------------------
 Center     Atomic                   Forces (Hartrees/Bohr)
 Number     Number              X              Y              Z
 -------------------------------------------------------------------
      1        6          -0.000346954    0.000475756    0.002008030
      2        6           0.000968845   -0.002316261   -0.000036315
      3        6           0.001987628   -0.000174198   -0.000616036
      4        1           0.000119849    0.000066791   -0.000224694
      5        6          -0.003512810   -0.003528678   -0.002509583
      6        6          -0.001640357    0.000162742    0.000031150
      7        1           0.001624575   -0.000214833   -0.000085679
      8        6          -0.000576522   -0.007273556    0.002338942
      9        6          -0.003573318   -0.001939826   -0.000546222
     10        1          -0.000210382   -0.000025483    0.000148399
     11        1           0.000542435    0.000388102    0.000200828
     12        1          -0.001253364   -0.002074611    0.002353760
     13        8           0.010177235    0.000812286   -0.004384530
     14        1          -0.004899019    0.005638107    0.000896090
     15        8           0.000592158    0.010003661    0.000425859
 -------------------------------------------------------------------
 Cartesian Forces:  Max     0.010177235 RMS     0.003054235
 Leave Link  716 at Mon Sep 21 10:06:06 2026, MaxMem=  3758096384 cpu:               0.2 elap:               0.0
 (Enter /opt/software/gaussian/16RevA.03/g16/l103.exe)

 GradGradGradGradGradGradGradGradGradGradGradGradGradGradGradGradGradGrad
 Berny optimization.
 Using GEDIIS/GDIIS optimizer.
 FormGI is forming the generalized inverse of G from B-inverse, IUseBI=4.
 Internal  Forces:  Max     0.019088909 RMS     0.003883467
 Search for a local minimum.
 Step number  10 out of a maximum of   77
 All quantities printed in internal units (Hartrees-Bohrs-Radians)
 RMS Force = .38835D-02 SwitMx=.10000D-02 MixMth= 1
 Mixed Optimization -- RFO/linear search
 Iteration  1 RMS(Cart)=  0.10390398 RMS(Int)=  0.00583193
 Iteration  2 RMS(Cart)=  0.00792891 RMS(Int)=  0.00003712
 Iteration  3 RMS(Cart)=  0.00004129 RMS(Int)=  0.00000001
 Iteration  4 RMS(Cart)=  0.00000001 RMS(Int)=  0.00000000
 Update second derivatives using D2CorX and points    7   10    9    8
 DE=  4.18D-05 DEPred=-9.91D-04 R=-4.22D-02
 Trust test=-4.22D-02 RLast= 3.25D-01 DXMaxT set to 7.21D-02
 ITU= -1 -1  0  1  1  1 -1  1  1  0
 Use linear search instead of GDIIS.
 Energy rises -- skip Quadratic/GDIIS search.
 Quartic linear search produced a step of -0.53570.
 Iteration  1 RMS(Cart)=  0.04641414 RMS(Int)=  0.00123722
 Iteration  2 RMS(Cart)=  0.00170030 RMS(Int)=  0.00004053
 Iteration  3 RMS(Cart)=  0.00000154 RMS(Int)=  0.00004050
 Iteration  4 RMS(Cart)=  0.00000000 RMS(Int)=  0.00004050
 ITry= 1 IFail=0 DXMaxC= 2.39D-01 DCOld= 1.00D+10 DXMaxT= 7.21D-02 DXLimC= 3.00D+00 Rises=T
 Variable       Old X    -DE/DX   Delta X   Delta X   Delta X     New X
                                 (Linear)    (Quad)   (Total)
    R1        2.62938   0.00039   0.00056   0.00000  -0.00145   2.62792
    R2        2.65076  -0.00020  -0.00012   0.00000   0.00050   2.65126
    R3        2.04996   0.00018  -0.00053   0.00000   0.00214   2.05211
    R4        2.05270   0.00008  -0.00001   0.00000   0.00040   2.05310
    R5        2.64249   0.00000  -0.00095   0.00000   0.00112   2.64361
    R6        2.63631   0.00069   0.00035   0.00000   0.00007   2.63638
    R7        2.63677   0.00014  -0.00057   0.00000   0.00057   2.63734
    R8        2.05268   0.00002  -0.00010   0.00000   0.00041   2.05309
    R9        2.83802  -0.00270   0.00376   0.00000  -0.01655   2.82148
   R10        2.64885  -0.00100   0.00040   0.00000   0.00024   2.64910
   R11        2.05309   0.00008  -0.00026   0.00000   0.00158   2.05467
   R12        2.28368  -0.00028  -0.00035   0.00000   0.00307   2.28675
   R13        2.57058   0.00076  -0.00165   0.00000   0.00626   2.57684
   R14        2.05707  -0.00013  -0.00023   0.00000   0.00108   2.05815
   R15        1.83303   0.00157  -0.00166   0.00000   0.00785   1.84088
    A1        2.10250  -0.00112   0.00073   0.00000  -0.00251   2.09999
    A2        2.11632   0.00027   0.00167   0.00000  -0.00629   2.11004
    A3        2.06435   0.00085  -0.00241   0.00000   0.00877   2.07313
    A4        2.09173   0.00003  -0.00065   0.00000   0.00250   2.09424
    A5        2.09572  -0.00009   0.00041   0.00000  -0.00221   2.09351
    A6        2.09573   0.00006   0.00024   0.00000  -0.00029   2.09544
    A7        2.09474  -0.00004  -0.00015   0.00000   0.00072   2.09545
    A8        2.09960  -0.00006  -0.00007   0.00000  -0.00162   2.09798
    A9        2.08877   0.00010   0.00023   0.00000   0.00097   2.08974
   A10        2.04359   0.00341  -0.00352   0.00000   0.00949   2.05308
   A11        2.07840   0.00195  -0.00172   0.00000   0.00723   2.08563
   A12        2.16074  -0.00535   0.00531   0.00000  -0.01627   2.14447
   A13        2.09238   0.00034  -0.00055   0.00000   0.00340   2.09578
   A14        2.09614  -0.00024   0.00077   0.00000  -0.00271   2.09343
   A15        2.09460  -0.00010  -0.00021   0.00000  -0.00063   2.09397
   A16        2.14954   0.00223   0.00109   0.00000  -0.01191   2.13763
   A17        2.04846  -0.00587   0.00895   0.00000  -0.03536   2.01310
   A18        2.08514   0.00365  -0.01005   0.00000   0.04715   2.13228
   A19        2.10210  -0.00103   0.00137   0.00000  -0.00613   2.09597
   A20        2.06174   0.00299  -0.00363   0.00000   0.01381   2.07555
   A21        2.11716  -0.00192   0.00274   0.00000  -0.00551   2.11165
   A22        1.92746  -0.00207  -0.00115   0.00000   0.01901   1.94647
    D1       -3.12720  -0.00014  -0.00130   0.00000  -0.01510   3.14089
    D2        0.01939  -0.00014  -0.00202   0.00000  -0.01829   0.00110
    D3        0.01079   0.00002  -0.00229   0.00000  -0.00318   0.00762
    D4       -3.12581   0.00002  -0.00302   0.00000  -0.00637  -3.13217
    D5        3.13758   0.00013   0.00077   0.00000   0.00327   3.14086
    D6       -0.03533   0.00034   0.00313   0.00000   0.03854   0.00322
    D7       -0.00051  -0.00003   0.00172   0.00000  -0.00837  -0.00888
    D8        3.10976   0.00018   0.00408   0.00000   0.02690   3.13666
    D9        0.00736  -0.00010  -0.00081   0.00000  -0.00782  -0.00046
   D10       -3.14682   0.00006   0.00014   0.00000   0.00713  -3.13970
   D11       -3.12923  -0.00010  -0.00153   0.00000  -0.01102  -3.14025
   D12       -0.00023   0.00006  -0.00059   0.00000   0.00393   0.00370
   D13       -0.01769   0.00008   0.00254   0.00000   0.01316  -0.00453
   D14        3.13648  -0.00008   0.00159   0.00000  -0.00178   3.13470
   D15        3.11099   0.00031   0.00327   0.00000   0.03052   3.14151
   D16       -0.01803   0.00015   0.00233   0.00000   0.01559  -0.00244
   D17        0.00138   0.00016  -0.00144   0.00000   0.00750   0.00888
   D18        3.07286   0.00079   0.00732   0.00000   0.07138  -3.13894
   D19       -3.12738  -0.00006  -0.00217   0.00000  -0.00976  -3.13714
   D20       -0.05589   0.00057   0.00659   0.00000   0.05412  -0.00177
   D21        0.43764  -0.00017  -0.08194   0.00000  -0.19928   0.23836
   D22       -2.69324  -0.00127  -0.08009   0.00000  -0.22930  -2.92254
   D23       -2.67101  -0.00054  -0.08429   0.00000  -0.23631  -2.90733
   D24        0.48129  -0.00165  -0.08244   0.00000  -0.26633   0.21496
   D25        0.02494  -0.00035  -0.00139   0.00000  -0.03313  -0.00820
   D26       -3.04429  -0.00120  -0.01023   0.00000  -0.09914   3.13975
   D27        3.13297   0.00005   0.00098   0.00000   0.00459   3.13756
   D28        0.06374  -0.00080  -0.00786   0.00000  -0.06142   0.00232
   D29        0.21771  -0.00070  -0.03751   0.00000  -0.12599   0.09172
   D30       -2.91358  -0.00175  -0.03581   0.00000  -0.15554  -3.06912
         Item               Value     Threshold  Converged?
 Maximum Force            0.019089     0.000450     NO 
 RMS     Force            0.003883     0.000300     NO 
 Maximum Displacement     0.238923     0.001800     NO 
 RMS     Displacement     0.046468     0.001200     NO 
 Predicted change in Energy=-2.866790D-04
 GradGradGradGradGradGradGradGradGradGradGradGradGradGradGradGradGradGrad

 Leave Link  103 at Mon Sep 21 10:06:06 2026, MaxMem=  3758096384 cpu:               0.7 elap:               0.1
 (Enter /opt/software/gaussian/16RevA.03/g16/l202.exe)
                          Input orientation:                          
 ---------------------------------------------------------------------
 Center     Atomic      Atomic             Coordinates (Angstroms)
 Number     Number       Type             X           Y           Z
 ---------------------------------------------------------------------
      1          6           0       -0.854077    2.015468    0.001550
      2          6           0       -1.512986    0.792148    0.058121
      3          6           0        0.617154   -0.357615    0.041235
      4          1           0       -2.598572    0.760908    0.088276
      5          6           0        0.547548    2.063905   -0.036793
      6          6           0       -0.776902   -0.397306    0.078324
      7          1           0       -1.409871    2.948353   -0.006057
      8          6           0        1.192548    3.409071   -0.097886
      9          6           0        1.280186    0.868845   -0.021580
     10          1           0        1.190847   -1.280113    0.056912
     11          1           0       -1.292196   -1.353791    0.120770
     12          1           0        2.368841    0.878081   -0.052264
     13          8           0        0.585301    4.431614    0.125697
     14          1           0        2.837578    2.509208   -0.614860
     15          8           0        2.522108    3.405632   -0.400678
 ---------------------------------------------------------------------
                    Distance matrix (angstroms):
                    1          2          3          4          5
     1  C    0.000000
     2  C    1.390638   0.000000
     3  C    2.792422   2.420689   0.000000
     4  H    2.150513   1.086455   3.405026   0.000000
     5  C    1.402986   2.423257   2.423777   3.407568   0.000000
     6  C    2.415229   1.398938   1.395114   2.158713   2.797316
     7  H    1.085928   2.159623   3.878208   2.491350   2.148181
     8  C    2.478042   3.767299   3.812920   4.628177   1.493061
     9  C    2.422883   2.795361   1.395623   3.881815   1.401841
    10  H    3.878871   3.406608   1.086449   4.304236   3.406621
    11  H    3.399716   2.158177   2.155066   2.485886   3.884602
    12  H    3.418150   3.884347   2.145715   4.970783   2.173368
    13  O    2.815134   4.201557   4.790080   4.859273   2.373578
    14  H    3.775190   4.725315   3.685026   5.753493   2.403475
    15  O    3.673278   4.829366   4.241010   5.784031   2.414856
                    6          7          8          9         10
     6  C    0.000000
     7  H    3.406054   0.000000
     8  C    4.289323   2.644481   0.000000
     9  C    2.417588   3.400148   2.542883   0.000000
    10  H    2.156813   4.964637   4.691739   2.152246   0.000000
    11  H    1.087287   4.305622   5.376488   3.402576   2.484957
    12  H    3.396964   4.308924   2.791355   1.089126   2.461176
    13  O    5.017600   2.489605   1.210095   3.632888   5.744148
    14  H    4.689647   4.313272   1.945030   2.338427   4.185923
    15  O    5.057197   3.978101   1.363607   2.849802   4.892632
                   11         12         13         14         15
    11  H    0.000000
    12  H    4.291198   0.000000
    13  O    6.082428   3.979985   0.000000
    14  H    5.702538   1.787961   3.052347   0.000000
    15  O    6.121513   2.556051   2.254092   0.974152   0.000000
 Stoichiometry    C7H6O2
 Framework group  C1[X(C7H6O2)]
 Deg. of freedom    39
 Full point group                 C1      NOp   1
 RotChk:  IX=0 Diff= 1.42D-02
 Largest Abelian subgroup         C1      NOp   1
 Largest concise Abelian subgroup C1      NOp   1
                         Standard orientation:                         
 ---------------------------------------------------------------------
 Center     Atomic      Atomic             Coordinates (Angstroms)
 Number     Number       Type             X           Y           Z
 ---------------------------------------------------------------------
      1          6           0       -0.488792   -1.222249    0.079090
      2          6           0       -1.879081   -1.192305    0.087705
      3          6           0       -1.829614    1.221601   -0.086489
      4          1           0       -2.441824   -2.119052    0.157314
      5          6           0        0.244791   -0.029757   -0.011401
      6          6           0       -2.551810    0.031436    0.004524
      7          1           0        0.049013   -2.164041    0.134152
      8          6           0        1.734369   -0.131629   -0.014692
      9          6           0       -0.434264    1.194162   -0.089277
     10          1           0       -2.349975    2.173126   -0.151267
     11          1           0       -3.638811    0.054893    0.013050
     12          1           0        0.110887    2.134485   -0.158558
     13          8           0        2.313570   -1.180292   -0.185461
     14          1           0        1.786649    1.777685    0.352637
     15          8           0        2.400239    1.044710    0.164949
 ---------------------------------------------------------------------
 Rotational constants (GHZ):           3.7925336           1.2332493           0.9359881
 Leave Link  202 at Mon Sep 21 10:06:06 2026, MaxMem=  3758096384 cpu:               0.3 elap:               0.1
 (Enter /opt/software/gaussian/16RevA.03/g16/l301.exe)
 Standard basis: 6-31G(d) (6D, 7F)
 Ernie: Thresh=  0.10000D-02 Tol=  0.10000D-05 Strict=F.
 There are   147 symmetry adapted cartesian basis functions of A   symmetry.
 There are   147 symmetry adapted basis functions of A   symmetry.
   147 basis functions,   276 primitive gaussians,   147 cartesian basis functions
    32 alpha electrons       32 beta electrons
       nuclear repulsion energy       404.7781309219 Hartrees.
 IExCor=  402 DFT=T Ex+Corr=B3LYP ExCW=0 ScaHFX=  0.200000
 ScaDFX=  0.800000  0.720000  1.000000  0.810000 ScalE2=  1.000000  1.000000
 IRadAn=      5 IRanWt=     -1 IRanGd=            0 ICorTp=0 IEmpDi=  4
 NAtoms=   15 NActive=   15 NUniq=   15 SFac= 1.00D+00 NAtFMM=   60 NAOKFM=F Big=F
 Integral buffers will be    131072 words long.
 Raffenetti 2 integral format.
 Two-electron integral symmetry is turned on.
 Leave Link  301 at Mon Sep 21 10:06:06 2026, MaxMem=  3758096384 cpu:               0.6 elap:               0.1
 (Enter /opt/software/gaussian/16RevA.03/g16/l302.exe)
 NPDir=0 NMtPBC=     1 NCelOv=     1 NCel=       1 NClECP=     1 NCelD=      1
         NCelK=      1 NCelE2=     1 NClLst=     1 CellRange=     0.0.
 One-electron integrals computed using PRISM.
 One-electron integral symmetry used in STVInt
 NBasis=   147 RedAO= T EigKep=  4.72D-04  NBF=   147
 NBsUse=   147 1.00D-06 EigRej= -1.00D+00 NBFU=   147
 Precomputing XC quadrature grid using
 IXCGrd= 4 IRadAn=           5 IRanWt=          -1 IRanGd=           0 AccXCQ= 0.00D+00.
 Generated NRdTot=       0 NPtTot=           0 NUsed=           0 NTot=          32
 NSgBfM=   147   147   147   147   147 MxSgAt=    15 MxSgA2=    15.
 Leave Link  302 at Mon Sep 21 10:06:07 2026, MaxMem=  3758096384 cpu:               1.0 elap:               0.1
 (Enter /opt/software/gaussian/16RevA.03/g16/l303.exe)
 DipDrv:  MaxL=1.
 Leave Link  303 at Mon Sep 21 10:06:07 2026, MaxMem=  3758096384 cpu:               0.2 elap:               0.0
 (Enter /opt/software/gaussian/16RevA.03/g16/l401.exe)
 Lowest energy guess from the checkpoint file:  "job.chk"
 B after Tr=    -0.000000   -0.000000    0.000000
         Rot=    0.999997    0.001843    0.000973    0.000897 Ang=   0.26 deg.
 Guess basis will be translated and rotated to current coordinates.
 B after Tr=     0.000000   -0.000000   -0.000000
         Rot=    1.000000    0.000400   -0.000182    0.000229 Ang=   0.06 deg.
 Guess basis will be translated and rotated to current coordinates.
 CkInt1:  FT= 4.64D-01
 Max alpha theta=  1.461 degrees.
 JPrj=2 DoOrth=T DoCkMO=T.
 Leave Link  401 at Mon Sep 21 10:06:07 2026, MaxMem=  3758096384 cpu:               1.2 elap:               0.2
 (Enter /opt/software/gaussian/16RevA.03/g16/l502.exe)
 Integral symmetry usage will be decided dynamically.
 Closed shell SCF:
 Using DIIS extrapolation, IDIIS=  1040.
 NGot=  3758096384 LenX=  3758050306 LenY=  3758028256
 Requested convergence on RMS density matrix=1.00D-08 within 128 cycles.
 Requested convergence on MAX density matrix=1.00D-06.
 Requested convergence on             energy=1.00D-06.
 No special actions if energy rises.
 Fock matrices will be formed incrementally for  20 cycles.
 Integral accuracy reduced to 1.0D-05 until final iterations.

 Cycle   1  Pass 0  IDiag  1:
 FoFJK:  IHMeth= 1 ICntrl=       0 DoSepK=F KAlg= 0 I1Cent=           0 FoldK=F
 IRaf= 940000000 NMat=       1 IRICut=       1 DoRegI=T DoRafI=F ISym2E= 0 IDoP0=0 IntGTp=1.
 FoFCou: FMM=F IPFlag=           0 FMFlag=      100000 FMFlg1=           0
         NFxFlg=           0 DoJE=F BraDBF=F KetDBF=F FulRan=T
         wScrn=  0.000000 ICntrl=         0 IOpCl=  0 I1Cent=           0 NGrid=           0
         NMat0=    1 NMatS0=      1 NMatT0=    0 NMatD0=    1 NMtDS0=    0 NMtDT0=    0
 Symmetry not used in FoFCou.
 E= -420.803424016357    
 DIIS: error= 4.26D-03 at cycle   1 NSaved=   1.
 NSaved= 1 IEnMin= 1 EnMin= -420.803424016357     IErMin= 1 ErrMin= 4.26D-03
 ErrMax= 4.26D-03  0.00D+00 EMaxC= 1.00D-01 BMatC= 2.81D-03 BMatP= 2.81D-03
 IDIUse=3 WtCom= 9.57D-01 WtEn= 4.26D-02
 Coeff-Com:  0.100D+01
 Coeff-En:   0.100D+01
 Coeff:      0.100D+01
 Gap=    10.774 Goal=   None    Shift=    0.000
 GapD=   10.774 DampG=2.000 DampE=1.000 DampFc=2.0000 IDamp=-1.
 RMSDP=7.21D-04 MaxDP=1.64D-02              OVMax= 2.47D-02

 Cycle   2  Pass 0  IDiag  1:
 RMSU=  7.21D-04    CP:  1.00D+00
 E= -420.809043844398     Delta-E=       -0.005619828041 Rises=F Damp=F
 DIIS: error= 6.56D-04 at cycle   2 NSaved=   2.
 NSaved= 2 IEnMin= 2 EnMin= -420.809043844398     IErMin= 2 ErrMin= 6.56D-04
 ErrMax= 6.56D-04  0.00D+00 EMaxC= 1.00D-01 BMatC= 7.34D-05 BMatP= 2.81D-03
 IDIUse=3 WtCom= 9.93D-01 WtEn= 6.56D-03
 Coeff-Com: -0.414D-01 0.104D+01
 Coeff-En:   0.000D+00 0.100D+01
 Coeff:     -0.412D-01 0.104D+01
 Gap=     0.214 Goal=   None    Shift=    0.000
 RMSDP=1.35D-04 MaxDP=3.24D-03 DE=-5.62D-03 OVMax= 5.00D-03

 Cycle   3  Pass 0  IDiag  1:
 RMSU=  1.27D-04    CP:  1.00D+00  1.06D+00
 E= -420.809066209966     Delta-E=       -0.000022365568 Rises=F Damp=F
 DIIS: error= 7.41D-04 at cycle   3 NSaved=   3.
 NSaved= 3 IEnMin= 3 EnMin= -420.809066209966     IErMin= 2 ErrMin= 6.56D-04
 ErrMax= 7.41D-04  0.00D+00 EMaxC= 1.00D-01 BMatC= 1.14D-04 BMatP= 7.34D-05
 IDIUse=3 WtCom= 2.69D-01 WtEn= 7.31D-01
 Coeff-Com: -0.446D-01 0.607D+00 0.438D+00
 Coeff-En:   0.000D+00 0.409D+00 0.591D+00
 Coeff:     -0.120D-01 0.462D+00 0.550D+00
 Gap=     0.214 Goal=   None    Shift=    0.000
 RMSDP=9.67D-05 MaxDP=3.23D-03 DE=-2.24D-05 OVMax= 5.35D-03

 Cycle   4  Pass 0  IDiag  1:
 RMSU=  6.23D-05    CP:  1.00D+00  1.07D+00  4.23D-01
 E= -420.809117649358     Delta-E=       -0.000051439391 Rises=F Damp=F
 DIIS: error= 5.88D-04 at cycle   4 NSaved=   4.
 NSaved= 4 IEnMin= 4 EnMin= -420.809117649358     IErMin= 4 ErrMin= 5.88D-04
 ErrMax= 5.88D-04  0.00D+00 EMaxC= 1.00D-01 BMatC= 4.72D-05 BMatP= 7.34D-05
 IDIUse=3 WtCom= 9.94D-01 WtEn= 5.88D-03
 Coeff-Com: -0.187D-01 0.185D+00 0.387D+00 0.447D+00
 Coeff-En:   0.000D+00 0.000D+00 0.330D+00 0.670D+00
 Coeff:     -0.185D-01 0.184D+00 0.387D+00 0.448D+00
 Gap=     0.214 Goal=   None    Shift=    0.000
 RMSDP=4.24D-05 MaxDP=1.46D-03 DE=-5.14D-05 OVMax= 2.58D-03

 Cycle   5  Pass 0  IDiag  1:
 RMSU=  1.68D-05    CP:  1.00D+00  1.08D+00  6.20D-01  5.24D-01
 E= -420.809153482701     Delta-E=       -0.000035833343 Rises=F Damp=F
 DIIS: error= 9.92D-05 at cycle   5 NSaved=   5.
 NSaved= 5 IEnMin= 5 EnMin= -420.809153482701     IErMin= 5 ErrMin= 9.92D-05
 ErrMax= 9.92D-05  0.00D+00 EMaxC= 1.00D-01 BMatC= 1.31D-06 BMatP= 4.72D-05
 IDIUse=1 WtCom= 1.00D+00 WtEn= 0.00D+00
 Coeff-Com: -0.729D-02 0.597D-01 0.194D+00 0.270D+00 0.483D+00
 Coeff:     -0.729D-02 0.597D-01 0.194D+00 0.270D+00 0.483D+00
 Gap=     0.214 Goal=   None    Shift=    0.000
 RMSDP=8.60D-06 MaxDP=2.88D-04 DE=-3.58D-05 OVMax= 3.26D-04

 Initial convergence to 1.0D-05 achieved.  Increase integral accuracy.
 Cycle   6  Pass 1  IDiag  1:
 E= -420.809146369895     Delta-E=        0.000007112806 Rises=F Damp=F
 DIIS: error= 3.00D-05 at cycle   1 NSaved=   1.
 NSaved= 1 IEnMin= 1 EnMin= -420.809146369895     IErMin= 1 ErrMin= 3.00D-05
 ErrMax= 3.00D-05  0.00D+00 EMaxC= 1.00D-01 BMatC= 1.40D-07 BMatP= 1.40D-07
 IDIUse=1 WtCom= 1.00D+00 WtEn= 0.00D+00
 Coeff-Com:  0.100D+01
 Coeff:      0.100D+01
 Gap=     0.214 Goal=   None    Shift=    0.000
 RMSDP=8.60D-06 MaxDP=2.88D-04 DE= 7.11D-06 OVMax= 2.74D-04

 Cycle   7  Pass 1  IDiag  1:
 RMSU=  8.15D-06    CP:  1.00D+00
 E= -420.809146081265     Delta-E=        0.000000288629 Rises=F Damp=F
 DIIS: error= 5.81D-05 at cycle   2 NSaved=   2.
 NSaved= 2 IEnMin= 1 EnMin= -420.809146369895     IErMin= 1 ErrMin= 3.00D-05
 ErrMax= 5.81D-05  0.00D+00 EMaxC= 1.00D-01 BMatC= 4.73D-07 BMatP= 1.40D-07
 IDIUse=1 WtCom= 1.00D+00 WtEn= 0.00D+00
 Coeff-Com:  0.654D+00 0.346D+00
 Coeff:      0.654D+00 0.346D+00
 Gap=     0.214 Goal=   None    Shift=    0.000
 RMSDP=4.58D-06 MaxDP=1.30D-04 DE= 2.89D-07 OVMax= 1.95D-04

 Cycle   8  Pass 1  IDiag  1:
 RMSU=  3.21D-06    CP:  1.00D+00  6.01D-01
 E= -420.809146491178     Delta-E=       -0.000000409912 Rises=F Damp=F
 DIIS: error= 7.70D-06 at cycle   3 NSaved=   3.
 NSaved= 3 IEnMin= 3 EnMin= -420.809146491178     IErMin= 3 ErrMin= 7.70D-06
 ErrMax= 7.70D-06  0.00D+00 EMaxC= 1.00D-01 BMatC= 7.97D-09 BMatP= 1.40D-07
 IDIUse=1 WtCom= 1.00D+00 WtEn= 0.00D+00
 Coeff-Com:  0.226D+00 0.162D+00 0.612D+00
 Coeff:      0.226D+00 0.162D+00 0.612D+00
 Gap=     0.214 Goal=   None    Shift=    0.000
 RMSDP=8.41D-07 MaxDP=2.55D-05 DE=-4.10D-07 OVMax= 5.04D-05

 Cycle   9  Pass 1  IDiag  1:
 RMSU=  7.14D-07    CP:  1.00D+00  6.37D-01  8.97D-01
 E= -420.809146495741     Delta-E=       -0.000000004563 Rises=F Damp=F
 DIIS: error= 4.76D-06 at cycle   4 NSaved=   4.
 NSaved= 4 IEnMin= 4 EnMin= -420.809146495741     IErMin= 4 ErrMin= 4.76D-06
 ErrMax= 4.76D-06  0.00D+00 EMaxC= 1.00D-01 BMatC= 3.12D-09 BMatP= 7.97D-09
 IDIUse=1 WtCom= 1.00D+00 WtEn= 0.00D+00
 Coeff-Com:  0.229D-01 0.416D-01 0.416D+00 0.520D+00
 Coeff:      0.229D-01 0.416D-01 0.416D+00 0.520D+00
 Gap=     0.214 Goal=   None    Shift=    0.000
 RMSDP=3.51D-07 MaxDP=1.23D-05 DE=-4.56D-09 OVMax= 1.95D-05

 Cycle  10  Pass 1  IDiag  1:
 RMSU=  2.13D-07    CP:  1.00D+00  6.41D-01  9.14D-01  6.20D-01
 E= -420.809146498053     Delta-E=       -0.000000002312 Rises=F Damp=F
 DIIS: error= 6.22D-07 at cycle   5 NSaved=   5.
 NSaved= 5 IEnMin= 5 EnMin= -420.809146498053     IErMin= 5 ErrMin= 6.22D-07
 ErrMax= 6.22D-07  0.00D+00 EMaxC= 1.00D-01 BMatC= 1.29D-10 BMatP= 3.12D-09
 IDIUse=1 WtCom= 1.00D+00 WtEn= 0.00D+00
 Coeff-Com: -0.687D-02 0.684D-02 0.157D+00 0.254D+00 0.590D+00
 Coeff:     -0.687D-02 0.684D-02 0.157D+00 0.254D+00 0.590D+00
 Gap=     0.214 Goal=   None    Shift=    0.000
 RMSDP=1.08D-07 MaxDP=2.18D-06 DE=-2.31D-09 OVMax= 5.60D-06

 Cycle  11  Pass 1  IDiag  1:
 RMSU=  7.69D-08    CP:  1.00D+00  6.39D-01  9.22D-01  6.32D-01  6.79D-01
 E= -420.809146498163     Delta-E=       -0.000000000111 Rises=F Damp=F
 DIIS: error= 3.30D-07 at cycle   6 NSaved=   6.
 NSaved= 6 IEnMin= 6 EnMin= -420.809146498163     IErMin= 6 ErrMin= 3.30D-07
 ErrMax= 3.30D-07  0.00D+00 EMaxC= 1.00D-01 BMatC= 1.96D-11 BMatP= 1.29D-10
 IDIUse=1 WtCom= 1.00D+00 WtEn= 0.00D+00
 Coeff-Com: -0.563D-02 0.411D-03 0.549D-01 0.100D+00 0.338D+00 0.512D+00
 Coeff:     -0.563D-02 0.411D-03 0.549D-01 0.100D+00 0.338D+00 0.512D+00
 Gap=     0.214 Goal=   None    Shift=    0.000
 RMSDP=3.76D-08 MaxDP=8.57D-07 DE=-1.11D-10 OVMax= 1.91D-06

 Cycle  12  Pass 1  IDiag  1:
 RMSU=  3.02D-08    CP:  1.00D+00  6.40D-01  9.23D-01  6.29D-01  7.45D-01
                    CP:  7.98D-01
 E= -420.809146498183     Delta-E=       -0.000000000019 Rises=F Damp=F
 DIIS: error= 1.06D-07 at cycle   7 NSaved=   7.
 NSaved= 7 IEnMin= 7 EnMin= -420.809146498183     IErMin= 7 ErrMin= 1.06D-07
 ErrMax= 1.06D-07  0.00D+00 EMaxC= 1.00D-01 BMatC= 1.63D-12 BMatP= 1.96D-11
 IDIUse=1 WtCom= 1.00D+00 WtEn= 0.00D+00
 Coeff-Com: -0.144D-02-0.123D-02-0.376D-02 0.465D-03 0.560D-01 0.244D+00
 Coeff-Com:  0.706D+00
 Coeff:     -0.144D-02-0.123D-02-0.376D-02 0.465D-03 0.560D-01 0.244D+00
 Coeff:      0.706D+00
 Gap=     0.214 Goal=   None    Shift=    0.000
 RMSDP=1.34D-08 MaxDP=2.10D-07 DE=-1.92D-11 OVMax= 8.13D-07

 Cycle  13  Pass 1  IDiag  1:
 RMSU=  8.49D-09    CP:  1.00D+00  6.40D-01  9.23D-01  6.33D-01  7.56D-01
                    CP:  9.01D-01  8.52D-01
 E= -420.809146498187     Delta-E=       -0.000000000004 Rises=F Damp=F
 DIIS: error= 3.58D-08 at cycle   8 NSaved=   8.
 NSaved= 8 IEnMin= 8 EnMin= -420.809146498187     IErMin= 8 ErrMin= 3.58D-08
 ErrMax= 3.58D-08  0.00D+00 EMaxC= 1.00D-01 BMatC= 1.46D-13 BMatP= 1.63D-12
 IDIUse=1 WtCom= 1.00D+00 WtEn= 0.00D+00
 Coeff-Com:  0.715D-04-0.551D-03-0.874D-02-0.124D-01-0.169D-01 0.409D-01
 Coeff-Com:  0.298D+00 0.699D+00
 Coeff:      0.715D-04-0.551D-03-0.874D-02-0.124D-01-0.169D-01 0.409D-01
 Coeff:      0.298D+00 0.699D+00
 Gap=     0.214 Goal=   None    Shift=    0.000
 RMSDP=4.38D-09 MaxDP=6.70D-08 DE=-4.21D-12 OVMax= 2.49D-07

 SCF Done:  E(RB3LYP) =  -420.809146498     A.U. after   13 cycles
            NFock= 13  Conv=0.44D-08     -V/T= 2.0093
 KE= 4.169159005087D+02 PE=-1.790087847875D+03 EE= 5.475846699466D+02
 Leave Link  502 at Mon Sep 21 10:06:12 2026, MaxMem=  3758096384 cpu:              40.5 elap:               5.2
 (Enter /opt/software/gaussian/16RevA.03/g16/l701.exe)
 ... and contract with generalized density number  0.
 Compute integral first derivatives.
 Leave Link  701 at Mon Sep 21 10:06:12 2026, MaxMem=  3758096384 cpu:               0.6 elap:               0.1
 (Enter /opt/software/gaussian/16RevA.03/g16/l702.exe)
 L702 exits ... SP integral derivatives will be done elsewhere.
 Leave Link  702 at Mon Sep 21 10:06:12 2026, MaxMem=  3758096384 cpu:               0.2 elap:               0.0
 (Enter /opt/software/gaussian/16RevA.03/g16/l703.exe)
 Integral derivatives from FoFJK, PRISM(SPDF).
 Compute integral first derivatives, UseDBF=F ICtDFT=           0.
 Calling FoFJK, ICntrl=      2127 FMM=F ISym2X=0 I1Cent= 0 IOpClX= 0 NMat=1 NMatS=1 NMatT=0.
 FoFJK:  IHMeth= 1 ICntrl=    2127 DoSepK=F KAlg= 0 I1Cent=           0 FoldK=F
 IRaf=         0 NMat=       1 IRICut=       1 DoRegI=T DoRafI=F ISym2E= 0 IDoP0=0 IntGTp=1.
 FoFCou: FMM=F IPFlag=           0 FMFlag=      100000 FMFlg1=         800
         NFxFlg=           0 DoJE=F BraDBF=F KetDBF=F FulRan=T
         wScrn=  0.000000 ICntrl=      2127 IOpCl=  0 I1Cent=           0 NGrid=           0
         NMat0=    1 NMatS0=      1 NMatT0=    0 NMatD0=    1 NMtDS0=    0 NMtDT0=    0
 Symmetry not used in FoFCou.
 Leave Link  703 at Mon Sep 21 10:06:14 2026, MaxMem=  3758096384 cpu:               9.5 elap:               1.2
 (Enter /opt/software/gaussian/16RevA.03/g16/l716.exe)
 Dipole        =-1.61071102D+00 9.38594273D-01 2.22850013D-01
 ***** Axes restored to original set *****
 -------------------------------------------------------------------
 Center     Atomic                   Forces (Hartrees/Bohr)
 Number     Number              X              Y              Z
 -------------------------------------------------------------------
      1        6          -0.000274320    0.000285692    0.001736300
      2        6           0.000804115   -0.001854059   -0.000041607
      3        6           0.001929776   -0.000208782   -0.000622918
      4        1           0.000110984    0.000052369   -0.000197739
      5        6          -0.002671020   -0.002993858   -0.002352461
      6        6          -0.001337227    0.000153193    0.000080638
      7        1           0.001437768   -0.000196606   -0.000073851
      8        6           0.000081023   -0.006154687    0.002407735
      9        6          -0.003908847   -0.001546331   -0.000546514
     10        1          -0.000174992   -0.000021183    0.000124081
     11        1           0.000485331    0.000326251    0.000165430
     12        1          -0.001057679   -0.002561221    0.002354181
     13        8           0.008730396    0.000703090   -0.003336146
     14        1          -0.004067985    0.005417526   -0.000040183
     15        8          -0.000087323    0.008598607    0.000343055
 -------------------------------------------------------------------
 Cartesian Forces:  Max     0.008730396 RMS     0.002667178
 Leave Link  716 at Mon Sep 21 10:06:14 2026, MaxMem=  3758096384 cpu:               0.2 elap:               0.0
 (Enter /opt/software/gaussian/16RevA.03/g16/l103.exe)

 GradGradGradGradGradGradGradGradGradGradGradGradGradGradGradGradGradGrad
 Berny optimization.
 Using GEDIIS/GDIIS optimizer.
 FormGI is forming the generalized inverse of G from B-inverse, IUseBI=4.
 Internal  Forces:  Max     0.017116301 RMS     0.003635637
 Search for a local minimum.
 Step number  11 out of a maximum of   77
 All quantities printed in internal units (Hartrees-Bohrs-Radians)
 RMS Force = .36356D-02 SwitMx=.10000D-02 MixMth= 1
 Mixed Optimization -- RFO/linear search
 Update second derivatives using D2CorX and points    7   10    9   11    8
 ITU=  0 -1 -1  0  1  1  1 -1  1  1  0
 Use linear search instead of GDIIS.
 Energy rises -- skip Quadratic/GDIIS search.
 Quartic linear search produced a step of -0.68294.
 Iteration  1 RMS(Cart)=  0.04894049 RMS(Int)=  0.00123830
 Iteration  2 RMS(Cart)=  0.00161902 RMS(Int)=  0.00003909
 Iteration  3 RMS(Cart)=  0.00000187 RMS(Int)=  0.00003906
 Iteration  4 RMS(Cart)=  0.00000000 RMS(Int)=  0.00003906
 ITry= 1 IFail=0 DXMaxC= 2.21D-01 DCOld= 1.00D+10 DXMaxT= 7.21D-02 DXLimC= 3.00D+00 Rises=T
 Variable       Old X    -DE/DX   Delta X   Delta X   Delta X     New X
                                 (Linear)    (Quad)   (Total)
    R1        2.62792   0.00116   0.00171   0.00000   0.00172   2.62964
    R2        2.65126  -0.00050  -0.00049   0.00000  -0.00049   2.65077
    R3        2.05211  -0.00090  -0.00213   0.00000  -0.00213   2.04997
    R4        2.05310  -0.00012  -0.00029   0.00000  -0.00029   2.05281
    R5        2.64361  -0.00146  -0.00198   0.00000  -0.00197   2.64164
    R6        2.63638  -0.00063   0.00040   0.00000   0.00040   2.63678
    R7        2.63734  -0.00068  -0.00112   0.00000  -0.00113   2.63621
    R8        2.05309  -0.00007  -0.00040   0.00000  -0.00040   2.05269
    R9        2.82148   0.00975   0.01609   0.00000   0.01609   2.83757
   R10        2.64910   0.00263   0.00034   0.00000   0.00033   2.64943
   R11        2.05467  -0.00051  -0.00142   0.00000  -0.00142   2.05326
   R12        2.28675  -0.00440  -0.00255   0.00000  -0.00255   2.28420
   R13        2.57684  -0.00415  -0.00638   0.00000  -0.00638   2.57046
   R14        2.05815  -0.00115  -0.00103   0.00000  -0.00103   2.05712
   R15        1.84088  -0.00629  -0.00747   0.00000  -0.00747   1.83341
    A1        2.09999   0.00154   0.00264   0.00000   0.00266   2.10265
    A2        2.11004   0.00040   0.00643   0.00000   0.00643   2.11647
    A3        2.07313  -0.00194  -0.00906   0.00000  -0.00906   2.06407
    A4        2.09424  -0.00039  -0.00253   0.00000  -0.00254   2.09170
    A5        2.09351   0.00067   0.00203   0.00000   0.00205   2.09556
    A6        2.09544  -0.00028   0.00050   0.00000   0.00049   2.09593
    A7        2.09545  -0.00005  -0.00068   0.00000  -0.00069   2.09477
    A8        2.09798  -0.00014   0.00101   0.00000   0.00103   2.09901
    A9        2.08974   0.00020  -0.00037   0.00000  -0.00036   2.08938
   A10        2.05308  -0.00449  -0.01098   0.00000  -0.01094   2.04214
   A11        2.08563  -0.00364  -0.00713   0.00000  -0.00711   2.07852
   A12        2.14447   0.00813   0.01788   0.00000   0.01791   2.16238
   A13        2.09578  -0.00071  -0.00303   0.00000  -0.00302   2.09276
   A14        2.09343   0.00063   0.00283   0.00000   0.00283   2.09626
   A15        2.09397   0.00008   0.00017   0.00000   0.00017   2.09414
   A16        2.13763   0.00155   0.00951   0.00000   0.00955   2.14718
   A17        2.01310   0.01561   0.03555   0.00000   0.03559   2.04869
   A18        2.13228  -0.01712  -0.04501   0.00000  -0.04497   2.08731
   A19        2.09597   0.00220   0.00593   0.00000   0.00598   2.10195
   A20        2.07555  -0.00380  -0.01406   0.00000  -0.01398   2.06158
   A21        2.11165   0.00160   0.00726   0.00000   0.00734   2.11899
   A22        1.94647  -0.00329  -0.01445   0.00000  -0.01445   1.93202
    D1        3.14089   0.00031   0.00866   0.00000   0.00865  -3.13364
    D2        0.00110   0.00035   0.00991   0.00000   0.00991   0.01101
    D3        0.00762  -0.00003  -0.00075   0.00000  -0.00073   0.00688
    D4       -3.13217   0.00002   0.00050   0.00000   0.00053  -3.13165
    D5        3.14086   0.00008  -0.00125   0.00000  -0.00119   3.13966
    D6        0.00322  -0.00070  -0.02233   0.00000  -0.02238  -0.01917
    D7       -0.00888   0.00041   0.00791   0.00000   0.00799  -0.00089
    D8        3.13666  -0.00036  -0.01317   0.00000  -0.01320   3.12346
    D9       -0.00046   0.00007   0.00431   0.00000   0.00431   0.00385
   D10       -3.13970  -0.00022  -0.00469   0.00000  -0.00470   3.13879
   D11       -3.14025   0.00012   0.00557   0.00000   0.00558  -3.13468
   D12        0.00370  -0.00018  -0.00344   0.00000  -0.00344   0.00026
   D13       -0.00453  -0.00015  -0.00575   0.00000  -0.00577  -0.01030
   D14        3.13470   0.00014   0.00324   0.00000   0.00323   3.13794
   D15        3.14151  -0.00051  -0.01667   0.00000  -0.01669   3.12482
   D16       -0.00244  -0.00021  -0.00768   0.00000  -0.00768  -0.01012
   D17        0.00888  -0.00017  -0.00696   0.00000  -0.00693   0.00195
   D18       -3.13894  -0.00104  -0.03942   0.00000  -0.03947   3.10478
   D19       -3.13714   0.00018   0.00390   0.00000   0.00393  -3.13321
   D20       -0.00177  -0.00069  -0.02856   0.00000  -0.02861  -0.03038
   D21        0.23836  -0.00040   0.03163   0.00000   0.03171   0.27008
   D22       -2.92254   0.00153   0.05449   0.00000   0.05446  -2.86807
   D23       -2.90733   0.00037   0.05393   0.00000   0.05396  -2.85337
   D24        0.21496   0.00230   0.07679   0.00000   0.07671   0.29167
   D25       -0.00820   0.00061   0.02086   0.00000   0.02088   0.01268
   D26        3.13975   0.00151   0.05466   0.00000   0.05458  -3.08886
   D27        3.13756  -0.00018  -0.00188   0.00000  -0.00179   3.13577
   D28        0.00232   0.00073   0.03192   0.00000   0.03191   0.03423
   D29        0.09172   0.00043   0.03823   0.00000   0.03812   0.12983
   D30       -3.06912   0.00259   0.06056   0.00000   0.06068  -3.00844
         Item               Value     Threshold  Converged?
 Maximum Force            0.017116     0.000450     NO 
 RMS     Force            0.003636     0.000300     NO 
 Maximum Displacement     0.220715     0.001800     NO 
 RMS     Displacement     0.048889     0.001200     NO 
 Predicted change in Energy=-3.108350D-04
 GradGradGradGradGradGradGradGradGradGradGradGradGradGradGradGradGradGrad

 Leave Link  103 at Mon Sep 21 10:06:14 2026, MaxMem=  3758096384 cpu:               0.6 elap:               0.1
 (Enter /opt/software/gaussian/16RevA.03/g16/l202.exe)
                          Input orientation:                          
 ---------------------------------------------------------------------
 Center     Atomic      Atomic             Coordinates (Angstroms)
 Number     Number       Type             X           Y           Z
 ---------------------------------------------------------------------
      1          6           0       -0.842263    2.008011    0.001490
      2          6           0       -1.511535    0.788743    0.044694
      3          6           0        0.607095   -0.376324    0.053356
      4          1           0       -2.597497    0.768487    0.062824
      5          6           0        0.559458    2.049285   -0.031932
      6          6           0       -0.787812   -0.406988    0.068411
      7          1           0       -1.384198    2.947691   -0.008285
      8          6           0        1.200681    3.406206   -0.080197
      9          6           0        1.277850    0.845791    0.002251
     10          1           0        1.175420   -1.301398    0.087357
     11          1           0       -1.309677   -1.359300    0.104782
     12          1           0        2.366096    0.835204    0.027118
     13          8           0        0.605342    4.425747    0.178989
     14          1           0        2.827036    2.596958   -0.731657
     15          8           0        2.511514    3.466295   -0.438432
 ---------------------------------------------------------------------
                    Distance matrix (angstroms):
                    1          2          3          4          5
     1  C    0.000000
     2  C    1.391548   0.000000
     3  C    2.790767   2.417860   0.000000
     4  H    2.149658   1.086303   3.402953   0.000000
     5  C    1.402726   2.425665   2.427575   3.408194   0.000000
     6  C    2.416540   1.397895   1.395325   2.157947   2.803299
     7  H    1.084799   2.163349   3.875322   2.495212   2.141375
     8  C    2.476943   3.771317   3.831151   4.626465   1.501577
     9  C    2.417775   2.790291   1.395023   3.876591   1.402018
    10  H    3.876932   3.404443   1.086237   4.303479   3.408917
    11  H    3.401166   2.158343   2.154739   2.487513   3.889834
    12  H    3.416095   3.877949   2.136018   4.964170   2.177481
    13  O    2.823564   4.210345   4.803714   4.862841   2.386245
    14  H    3.787891   4.763986   3.792729   5.779279   2.435461
    15  O    3.683469   4.856709   4.316756   5.799260   2.446156
                    6          7          8          9         10
     6  C    0.000000
     7  H    3.408142   0.000000
     8  C    4.303097   2.626215   0.000000
     9  C    2.416773   3.391842   2.562905   0.000000
    10  H    2.157454   4.961406   4.710653   2.151314   0.000000
    11  H    1.086538   4.309120   5.389450   3.401211   2.485833
    12  H    3.389968   4.304482   2.824848   1.088582   2.446713
    13  O    5.030749   2.485556   1.208747   3.646860   5.756177
    14  H    4.767696   4.287280   1.929848   2.450548   4.312285
    15  O    5.113195   3.953548   1.360230   2.929705   4.979206
                   11         12         13         14         15
    11  H    0.000000
    12  H    4.281727   0.000000
    13  O    6.094225   4.001915   0.000000
    14  H    5.784808   1.972811   3.018223   0.000000
    15  O    6.179235   2.675915   2.221542   0.970196   0.000000
 Stoichiometry    C7H6O2
 Framework group  C1[X(C7H6O2)]
 Deg. of freedom    39
 Full point group                 C1      NOp   1
 RotChk:  IX=0 Diff= 7.53D-03
 Largest Abelian subgroup         C1      NOp   1
 Largest concise Abelian subgroup C1      NOp   1
                         Standard orientation:                         
 ---------------------------------------------------------------------
 Center     Atomic      Atomic             Coordinates (Angstroms)
 Number     Number       Type             X           Y           Z
 ---------------------------------------------------------------------
      1          6           0       -0.487134   -1.210463    0.087484
      2          6           0       -1.878426   -1.193705    0.108297
      3          6           0       -1.854676    1.214952   -0.101119
      4          1           0       -2.429095   -2.126221    0.193323
      5          6           0        0.237289   -0.013426   -0.012294
      6          6           0       -2.565663    0.020112    0.016293
      7          1           0        0.065664   -2.141854    0.148418
      8          6           0        1.734890   -0.121838   -0.025441
      9          6           0       -0.459809    1.198729   -0.114209
     10          1           0       -2.382964    2.160022   -0.188679
     11          1           0       -3.652030    0.033739    0.029852
     12          1           0        0.063116    2.144862   -0.242248
     13          8           0        2.318403   -1.161008   -0.227204
     14          1           0        1.858093    1.739543    0.468919
     15          8           0        2.446395    1.013975    0.206749
 ---------------------------------------------------------------------
 Rotational constants (GHZ):           3.8359270           1.2113911           0.9287822
 Leave Link  202 at Mon Sep 21 10:06:14 2026, MaxMem=  3758096384 cpu:               0.3 elap:               0.1
 (Enter /opt/software/gaussian/16RevA.03/g16/l301.exe)
 Standard basis: 6-31G(d) (6D, 7F)
 Ernie: Thresh=  0.10000D-02 Tol=  0.10000D-05 Strict=F.
 There are   147 symmetry adapted cartesian basis functions of A   symmetry.
 There are   147 symmetry adapted basis functions of A   symmetry.
   147 basis functions,   276 primitive gaussians,   147 cartesian basis functions
    32 alpha electrons       32 beta electrons
       nuclear repulsion energy       403.9780481846 Hartrees.
 IExCor=  402 DFT=T Ex+Corr=B3LYP ExCW=0 ScaHFX=  0.200000
 ScaDFX=  0.800000  0.720000  1.000000  0.810000 ScalE2=  1.000000  1.000000
 IRadAn=      5 IRanWt=     -1 IRanGd=            0 ICorTp=0 IEmpDi=  4
 NAtoms=   15 NActive=   15 NUniq=   15 SFac= 1.00D+00 NAtFMM=   60 NAOKFM=F Big=F
 Integral buffers will be    131072 words long.
 Raffenetti 2 integral format.
 Two-electron integral symmetry is turned on.
 Leave Link  301 at Mon Sep 21 10:06:14 2026, MaxMem=  3758096384 cpu:               0.5 elap:               0.1
 (Enter /opt/software/gaussian/16RevA.03/g16/l302.exe)
 NPDir=0 NMtPBC=     1 NCelOv=     1 NCel=       1 NClECP=     1 NCelD=      1
         NCelK=      1 NCelE2=     1 NClLst=     1 CellRange=     0.0.
 One-electron integrals computed using PRISM.
 One-electron integral symmetry used in STVInt
 NBasis=   147 RedAO= T EigKep=  4.72D-04  NBF=   147
 NBsUse=   147 1.00D-06 EigRej= -1.00D+00 NBFU=   147
 Precomputing XC quadrature grid using
 IXCGrd= 4 IRadAn=           5 IRanWt=          -1 IRanGd=           0 AccXCQ= 0.00D+00.
 Generated NRdTot=       0 NPtTot=           0 NUsed=           0 NTot=          32
 NSgBfM=   147   147   147   147   147 MxSgAt=    15 MxSgA2=    15.
 Leave Link  302 at Mon Sep 21 10:06:14 2026, MaxMem=  3758096384 cpu:               1.0 elap:               0.1
 (Enter /opt/software/gaussian/16RevA.03/g16/l303.exe)
 DipDrv:  MaxL=1.
 Leave Link  303 at Mon Sep 21 10:06:14 2026, MaxMem=  3758096384 cpu:               0.2 elap:               0.0
 (Enter /opt/software/gaussian/16RevA.03/g16/l401.exe)
 Lowest energy guess from the checkpoint file:  "job.chk"
 B after Tr=     0.000000    0.000000   -0.000000
         Rot=    1.000000    0.000699    0.000340    0.000350 Ang=   0.10 deg.
 Guess basis will be translated and rotated to current coordinates.
 B after Tr=     0.000000    0.000000   -0.000000
         Rot=    0.999999   -0.001150   -0.000634   -0.000546 Ang=  -0.16 deg.
 Guess basis will be translated and rotated to current coordinates.
 CkInt1:  FT= 3.17D-01
 Max alpha theta=  2.499 degrees.
 JPrj=2 DoOrth=T DoCkMO=T.
 Leave Link  401 at Mon Sep 21 10:06:15 2026, MaxMem=  3758096384 cpu:               1.2 elap:               0.2
 (Enter /opt/software/gaussian/16RevA.03/g16/l502.exe)
 Integral symmetry usage will be decided dynamically.
 Closed shell SCF:
 Using DIIS extrapolation, IDIIS=  1040.
 NGot=  3758096384 LenX=  3758050306 LenY=  3758028256
 Requested convergence on RMS density matrix=1.00D-08 within 128 cycles.
 Requested convergence on MAX density matrix=1.00D-06.
 Requested convergence on             energy=1.00D-06.
 No special actions if energy rises.
 Fock matrices will be formed incrementally for  20 cycles.
 Integral accuracy reduced to 1.0D-05 until final iterations.

 Cycle   1  Pass 0  IDiag  1:
 FoFJK:  IHMeth= 1 ICntrl=       0 DoSepK=F KAlg= 0 I1Cent=           0 FoldK=F
 IRaf= 940000000 NMat=       1 IRICut=       1 DoRegI=T DoRafI=F ISym2E= 0 IDoP0=0 IntGTp=1.
 FoFCou: FMM=F IPFlag=           0 FMFlag=      100000 FMFlg1=           0
         NFxFlg=           0 DoJE=F BraDBF=F KetDBF=F FulRan=T
         wScrn=  0.000000 ICntrl=         0 IOpCl=  0 I1Cent=           0 NGrid=           0
         NMat0=    1 NMatS0=      1 NMatT0=    0 NMatD0=    1 NMtDS0=    0 NMtDT0=    0
 Symmetry not used in FoFCou.
 E= -420.810448595979    
 DIIS: error= 7.67D-05 at cycle   1 NSaved=   1.
 NSaved= 1 IEnMin= 1 EnMin= -420.810448595979     IErMin= 1 ErrMin= 7.67D-05
 ErrMax= 7.67D-05  0.00D+00 EMaxC= 1.00D-01 BMatC= 1.81D-06 BMatP= 1.81D-06
 IDIUse=1 WtCom= 1.00D+00 WtEn= 0.00D+00
 Coeff-Com:  0.100D+01
 Coeff:      0.100D+01
 Gap=    10.605 Goal=   None    Shift=    0.000
 RMSDP=3.53D-05 MaxDP=1.02D-03              OVMax= 5.23D-04

 Cycle   2  Pass 0  IDiag  1:
 RMSU=  3.52D-05    CP:  1.00D+00
 E= -420.810449861169     Delta-E=       -0.000001265191 Rises=F Damp=F
 DIIS: error= 7.22D-05 at cycle   2 NSaved=   2.
 NSaved= 2 IEnMin= 2 EnMin= -420.810449861169     IErMin= 2 ErrMin= 7.22D-05
 ErrMax= 7.22D-05  0.00D+00 EMaxC= 1.00D-01 BMatC= 1.22D-06 BMatP= 1.81D-06
 IDIUse=1 WtCom= 1.00D+00 WtEn= 0.00D+00
 Coeff-Com:  0.432D+00 0.568D+00
 Coeff:      0.432D+00 0.568D+00
 Gap=     0.214 Goal=   None    Shift=    0.000
 RMSDP=8.96D-06 MaxDP=3.44D-04 DE=-1.27D-06 OVMax= 3.26D-04

 Initial convergence to 1.0D-05 achieved.  Increase integral accuracy.
 Cycle   3  Pass 1  IDiag  1:
 E= -420.810446211259     Delta-E=        0.000003649910 Rises=F Damp=F
 DIIS: error= 3.40D-05 at cycle   1 NSaved=   1.
 NSaved= 1 IEnMin= 1 EnMin= -420.810446211259     IErMin= 1 ErrMin= 3.40D-05
 ErrMax= 3.40D-05  0.00D+00 EMaxC= 1.00D-01 BMatC= 3.83D-07 BMatP= 3.83D-07
 IDIUse=1 WtCom= 1.00D+00 WtEn= 0.00D+00
 Coeff-Com:  0.100D+01
 Coeff:      0.100D+01
 Gap=     0.214 Goal=   None    Shift=    0.000
 RMSDP=8.96D-06 MaxDP=3.44D-04 DE= 3.65D-06 OVMax= 3.78D-04

 Cycle   4  Pass 1  IDiag  1:
 RMSU=  1.03D-05    CP:  1.00D+00
 E= -420.810445582218     Delta-E=        0.000000629041 Rises=F Damp=F
 DIIS: error= 6.13D-05 at cycle   2 NSaved=   2.
 NSaved= 2 IEnMin= 1 EnMin= -420.810446211259     IErMin= 1 ErrMin= 3.40D-05
 ErrMax= 6.13D-05  0.00D+00 EMaxC= 1.00D-01 BMatC= 1.19D-06 BMatP= 3.83D-07
 IDIUse=1 WtCom= 1.00D+00 WtEn= 0.00D+00
 Coeff-Com:  0.640D+00 0.360D+00
 Coeff:      0.640D+00 0.360D+00
 Gap=     0.214 Goal=   None    Shift=    0.000
 RMSDP=6.23D-06 MaxDP=2.24D-04 DE= 6.29D-07 OVMax= 2.66D-04

 Cycle   5  Pass 1  IDiag  1:
 RMSU=  3.07D-06    CP:  1.00D+00  4.76D-01
 E= -420.810446492345     Delta-E=       -0.000000910128 Rises=F Damp=F
 DIIS: error= 6.54D-06 at cycle   3 NSaved=   3.
 NSaved= 3 IEnMin= 3 EnMin= -420.810446492345     IErMin= 3 ErrMin= 6.54D-06
 ErrMax= 6.54D-06  0.00D+00 EMaxC= 1.00D-01 BMatC= 7.72D-09 BMatP= 3.83D-07
 IDIUse=1 WtCom= 1.00D+00 WtEn= 0.00D+00
 Coeff-Com:  0.297D+00 0.178D+00 0.525D+00
 Coeff:      0.297D+00 0.178D+00 0.525D+00
 Gap=     0.214 Goal=   None    Shift=    0.000
 RMSDP=8.36D-07 MaxDP=2.77D-05 DE=-9.10D-07 OVMax= 3.83D-05

 Cycle   6  Pass 1  IDiag  1:
 RMSU=  7.37D-07    CP:  1.00D+00  5.04D-01  9.12D-01
 E= -420.810446497299     Delta-E=       -0.000000004953 Rises=F Damp=F
 DIIS: error= 3.72D-06 at cycle   4 NSaved=   4.
 NSaved= 4 IEnMin= 4 EnMin= -420.810446497299     IErMin= 4 ErrMin= 3.72D-06
 ErrMax= 3.72D-06  0.00D+00 EMaxC= 1.00D-01 BMatC= 2.38D-09 BMatP= 7.72D-09
 IDIUse=1 WtCom= 1.00D+00 WtEn= 0.00D+00
 Coeff-Com:  0.332D-02 0.866D-02 0.362D+00 0.626D+00
 Coeff:      0.332D-02 0.866D-02 0.362D+00 0.626D+00
 Gap=     0.214 Goal=   None    Shift=    0.000
 RMSDP=3.17D-07 MaxDP=1.19D-05 DE=-4.95D-09 OVMax= 1.41D-05

 Cycle   7  Pass 1  IDiag  1:
 RMSU=  1.15D-07    CP:  1.00D+00  5.01D-01  9.48D-01  6.31D-01
 E= -420.810446499171     Delta-E=       -0.000000001873 Rises=F Damp=F
 DIIS: error= 9.50D-07 at cycle   5 NSaved=   5.
 NSaved= 5 IEnMin= 5 EnMin= -420.810446499171     IErMin= 5 ErrMin= 9.50D-07
 ErrMax= 9.50D-07  0.00D+00 EMaxC= 1.00D-01 BMatC= 1.22D-10 BMatP= 2.38D-09
 IDIUse=1 WtCom= 1.00D+00 WtEn= 0.00D+00
 Coeff-Com: -0.346D-02 0.218D-02 0.225D+00 0.410D+00 0.366D+00
 Coeff:     -0.346D-02 0.218D-02 0.225D+00 0.410D+00 0.366D+00
 Gap=     0.214 Goal=   None    Shift=    0.000
 RMSDP=8.12D-08 MaxDP=1.98D-06 DE=-1.87D-09 OVMax= 3.82D-06

 Cycle   8  Pass 1  IDiag  1:
 RMSU=  3.32D-08    CP:  1.00D+00  5.00D-01  9.50D-01  6.36D-01  3.73D-01
 E= -420.810446499291     Delta-E=       -0.000000000120 Rises=F Damp=F
 DIIS: error= 1.73D-07 at cycle   6 NSaved=   6.
 NSaved= 6 IEnMin= 6 EnMin= -420.810446499291     IErMin= 6 ErrMin= 1.73D-07
 ErrMax= 1.73D-07  0.00D+00 EMaxC= 1.00D-01 BMatC= 2.39D-12 BMatP= 1.22D-10
 IDIUse=1 WtCom= 1.00D+00 WtEn= 0.00D+00
 Coeff-Com: -0.190D-02 0.232D-03 0.734D-01 0.138D+00 0.175D+00 0.616D+00
 Coeff:     -0.190D-02 0.232D-03 0.734D-01 0.138D+00 0.175D+00 0.616D+00
 Gap=     0.214 Goal=   None    Shift=    0.000
 RMSDP=1.35D-08 MaxDP=3.24D-07 DE=-1.20D-10 OVMax= 7.09D-07

 Cycle   9  Pass 1  IDiag  1:
 RMSU=  9.29D-09    CP:  1.00D+00  5.00D-01  9.50D-01  6.43D-01  4.26D-01
                    CP:  8.22D-01
 E= -420.810446499291     Delta-E=       -0.000000000000 Rises=F Damp=F
 DIIS: error= 3.41D-08 at cycle   7 NSaved=   7.
 NSaved= 7 IEnMin= 7 EnMin= -420.810446499291     IErMin= 7 ErrMin= 3.41D-08
 ErrMax= 3.41D-08  0.00D+00 EMaxC= 1.00D-01 BMatC= 2.47D-13 BMatP= 2.39D-12
 IDIUse=1 WtCom= 1.00D+00 WtEn= 0.00D+00
 Coeff-Com: -0.620D-03-0.103D-03 0.161D-01 0.314D-01 0.547D-01 0.305D+00
 Coeff-Com:  0.594D+00
 Coeff:     -0.620D-03-0.103D-03 0.161D-01 0.314D-01 0.547D-01 0.305D+00
 Coeff:      0.594D+00
 Gap=     0.214 Goal=   None    Shift=    0.000
 RMSDP=3.80D-09 MaxDP=8.68D-08 DE=-1.14D-13 OVMax= 1.61D-07

 SCF Done:  E(RB3LYP) =  -420.810446499     A.U. after    9 cycles
            NFock=  9  Conv=0.38D-08     -V/T= 2.0093
 KE= 4.169243032186D+02 PE=-1.788521992263D+03 EE= 5.468091943602D+02
 Leave Link  502 at Mon Sep 21 10:06:19 2026, MaxMem=  3758096384 cpu:              31.0 elap:               4.0
 (Enter /opt/software/gaussian/16RevA.03/g16/l701.exe)
 ... and contract with generalized density number  0.
 Compute integral first derivatives.
 Leave Link  701 at Mon Sep 21 10:06:19 2026, MaxMem=  3758096384 cpu:               0.6 elap:               0.1
 (Enter /opt/software/gaussian/16RevA.03/g16/l702.exe)
 L702 exits ... SP integral derivatives will be done elsewhere.
 Leave Link  702 at Mon Sep 21 10:06:19 2026, MaxMem=  3758096384 cpu:               0.1 elap:               0.0
 (Enter /opt/software/gaussian/16RevA.03/g16/l703.exe)
 Integral derivatives from FoFJK, PRISM(SPDF).
 Compute integral first derivatives, UseDBF=F ICtDFT=           0.
 Calling FoFJK, ICntrl=      2127 FMM=F ISym2X=0 I1Cent= 0 IOpClX= 0 NMat=1 NMatS=1 NMatT=0.
 FoFJK:  IHMeth= 1 ICntrl=    2127 DoSepK=F KAlg= 0 I1Cent=           0 FoldK=F
 IRaf=         0 NMat=       1 IRICut=       1 DoRegI=T DoRafI=F ISym2E= 0 IDoP0=0 IntGTp=1.
 FoFCou: FMM=F IPFlag=           0 FMFlag=      100000 FMFlg1=         800
         NFxFlg=           0 DoJE=F BraDBF=F KetDBF=F FulRan=T
         wScrn=  0.000000 ICntrl=      2127 IOpCl=  0 I1Cent=           0 NGrid=           0
         NMat0=    1 NMatS0=      1 NMatT0=    0 NMatD0=    1 NMtDS0=    0 NMtDT0=    0
 Symmetry not used in FoFCou.
 Leave Link  703 at Mon Sep 21 10:06:20 2026, MaxMem=  3758096384 cpu:               9.4 elap:               1.2
 (Enter /opt/software/gaussian/16RevA.03/g16/l716.exe)
 Dipole        =-1.59955472D+00 9.49220562D-01 2.78137497D-01
 ***** Axes restored to original set *****
 -------------------------------------------------------------------
 Center     Atomic                   Forces (Hartrees/Bohr)
 Number     Number              X              Y              Z
 -------------------------------------------------------------------
      1        6           0.000149429    0.000349164   -0.000074904
      2        6           0.000135954   -0.000459351    0.000006549
      3        6           0.000079581    0.000196122   -0.000081917
      4        1          -0.000024307    0.000010556   -0.000023806
      5        6          -0.000625699    0.000046029   -0.000311905
      6        6          -0.000254306    0.000226442   -0.000000237
      7        1           0.000030323    0.000003962   -0.000001585
      8        6          -0.000478326   -0.000177317    0.000303177
      9        6           0.000698193   -0.000556293    0.000239202
     10        1          -0.000048506   -0.000027659    0.000024272
     11        1           0.000009210    0.000000595    0.000014440
     12        1          -0.000058569    0.000768817    0.000065804
     13        8           0.000403780   -0.000146540   -0.000046662
     14        1          -0.000518000   -0.000333904   -0.000392278
     15        8           0.000501242    0.000099378    0.000279850
 -------------------------------------------------------------------
 Cartesian Forces:  Max     0.000768817 RMS     0.000294728
 Leave Link  716 at Mon Sep 21 10:06:20 2026, MaxMem=  3758096384 cpu:               0.2 elap:               0.0
 (Enter /opt/software/gaussian/16RevA.03/g16/l103.exe)

 GradGradGradGradGradGradGradGradGradGradGradGradGradGradGradGradGradGrad
 Berny optimization.
 Using GEDIIS/GDIIS optimizer.
 FormGI is forming the generalized inverse of G from B-inverse, IUseBI=4.
 Internal  Forces:  Max     0.001601778 RMS     0.000392458
 Search for a local minimum.
 Step number  12 out of a maximum of   77
 All quantities printed in internal units (Hartrees-Bohrs-Radians)
 RMS Force = .39246D-03 SwitMx=.10000D-02 MixMth= 2
 Mixed Optimization -- En-DIIS/RFO-DIIS
 Update second derivatives using D2CorX and points    2    3    4    5    6
                                                      7   10    9   11    8
                                                     12
 ITU=  0  0 -1 -1  0  1  1  1 -1  1  1  0
 Use linear search instead of GDIIS.
     Eigenvalues ---    0.00098   0.01463   0.01716   0.02100   0.02129
     Eigenvalues ---    0.02154   0.02176   0.02181   0.02186   0.02191
     Eigenvalues ---    0.02273   0.03439   0.15789   0.16000   0.16024
     Eigenvalues ---    0.16091   0.16616   0.18245   0.21945   0.22096
     Eigenvalues ---    0.23325   0.25986   0.30277   0.34877   0.35080
     Eigenvalues ---    0.35107   0.35109   0.35307   0.36668   0.41646
     Eigenvalues ---    0.42206   0.45932   0.46486   0.46607   0.47064
     Eigenvalues ---    0.52815   0.70691   1.01184   3.77372
 RFO step:  Lambda=-6.43218820D-05 EMin= 9.84851204D-04
 Quartic linear search produced a step of  0.00089.
 Iteration  1 RMS(Cart)=  0.02374439 RMS(Int)=  0.00145891
 Iteration  2 RMS(Cart)=  0.00164265 RMS(Int)=  0.00080532
 Iteration  3 RMS(Cart)=  0.00000163 RMS(Int)=  0.00080532
 Iteration  4 RMS(Cart)=  0.00000000 RMS(Int)=  0.00080532
 ITry= 1 IFail=0 DXMaxC= 1.12D-01 DCOld= 1.00D+10 DXMaxT= 7.21D-02 DXLimC= 3.00D+00 Rises=F
 Variable       Old X    -DE/DX   Delta X   Delta X   Delta X     New X
                                 (Linear)    (Quad)   (Total)
    R1        2.62964   0.00024  -0.00000  -0.00087  -0.00087   2.62878
    R2        2.65077  -0.00029   0.00000   0.00199   0.00199   2.65276
    R3        2.04997  -0.00001   0.00000  -0.00053  -0.00053   2.04945
    R4        2.05281   0.00002   0.00000   0.00002   0.00002   2.05284
    R5        2.64164  -0.00011   0.00000   0.00073   0.00073   2.64237
    R6        2.63678   0.00023  -0.00000   0.00119   0.00119   2.63797
    R7        2.63621  -0.00014   0.00000  -0.00028  -0.00028   2.63593
    R8        2.05269  -0.00000   0.00000  -0.00034  -0.00034   2.05235
    R9        2.83757  -0.00055  -0.00001  -0.01249  -0.01249   2.82507
   R10        2.64943  -0.00019  -0.00000  -0.00430  -0.00430   2.64513
   R11        2.05326  -0.00000   0.00000  -0.00042  -0.00042   2.05283
   R12        2.28420  -0.00033   0.00000  -0.00464  -0.00464   2.27956
   R13        2.57046   0.00000   0.00000   0.01813   0.01814   2.58860
   R14        2.05712  -0.00006   0.00000  -0.00036  -0.00036   2.05676
   R15        1.83341   0.00025   0.00000   0.00063   0.00064   1.83404
    A1        2.10265  -0.00039  -0.00000  -0.00479  -0.00479   2.09786
    A2        2.11647   0.00022  -0.00000   0.01108   0.01107   2.12754
    A3        2.06407   0.00017   0.00000  -0.00628  -0.00628   2.05779
    A4        2.09170  -0.00002   0.00000   0.00019   0.00019   2.09189
    A5        2.09556   0.00002  -0.00000   0.00001   0.00001   2.09556
    A6        2.09593   0.00000  -0.00000  -0.00020  -0.00020   2.09573
    A7        2.09477  -0.00012   0.00000  -0.00106  -0.00106   2.09371
    A8        2.09901  -0.00000  -0.00000   0.00072   0.00072   2.09974
    A9        2.08938   0.00012   0.00000   0.00034   0.00034   2.08973
   A10        2.04214   0.00106   0.00000   0.00157   0.00158   2.04372
   A11        2.07852   0.00055   0.00000   0.00661   0.00661   2.08514
   A12        2.16238  -0.00160  -0.00001  -0.00816  -0.00817   2.15421
   A13        2.09276   0.00012   0.00000   0.00202   0.00202   2.09479
   A14        2.09626  -0.00005  -0.00000  -0.00082  -0.00082   2.09544
   A15        2.09414  -0.00007  -0.00000  -0.00120  -0.00120   2.09294
   A16        2.14718   0.00093  -0.00000   0.01623   0.01242   2.15960
   A17        2.04869  -0.00124  -0.00001  -0.01201  -0.01574   2.03295
   A18        2.08731   0.00032   0.00002  -0.00469  -0.00836   2.07895
   A19        2.10195  -0.00018  -0.00000  -0.00271  -0.00271   2.09924
   A20        2.06158   0.00088   0.00001   0.01028   0.01028   2.07186
   A21        2.11899  -0.00070  -0.00000  -0.00742  -0.00742   2.11157
   A22        1.93202  -0.00098   0.00001  -0.01753  -0.01753   1.91449
    D1       -3.13364   0.00003  -0.00000  -0.00268  -0.00268  -3.13632
    D2        0.01101   0.00003  -0.00000  -0.00277  -0.00277   0.00824
    D3        0.00688   0.00000   0.00000   0.00032   0.00034   0.00722
    D4       -3.13165   0.00001  -0.00000   0.00023   0.00025  -3.13140
    D5        3.13966   0.00002   0.00000   0.00471   0.00471  -3.13881
    D6       -0.01917  -0.00005   0.00001   0.00581   0.00583  -0.01334
    D7       -0.00089   0.00004  -0.00000   0.00179   0.00180   0.00091
    D8        3.12346  -0.00003   0.00001   0.00289   0.00292   3.12638
    D9        0.00385  -0.00000  -0.00000  -0.00086  -0.00085   0.00300
   D10        3.13879  -0.00002   0.00000   0.00026   0.00027   3.13905
   D11       -3.13468   0.00000  -0.00000  -0.00095  -0.00094  -3.13562
   D12        0.00026  -0.00002   0.00000   0.00016   0.00017   0.00044
   D13       -0.01030  -0.00001   0.00000   0.00124   0.00124  -0.00906
   D14        3.13794   0.00001  -0.00000   0.00012   0.00013   3.13806
   D15        3.12482  -0.00004   0.00001   0.00231   0.00232   3.12714
   D16       -0.01012  -0.00002   0.00000   0.00120   0.00120  -0.00892
   D17        0.00195  -0.00001   0.00000   0.00194   0.00193   0.00388
   D18        3.10478  -0.00006   0.00002   0.00623   0.00626   3.11104
   D19       -3.13321   0.00002  -0.00000   0.00087   0.00085  -3.13235
   D20       -0.03038  -0.00003   0.00001   0.00516   0.00519  -0.02519
   D21        0.27008   0.00023  -0.00001  -0.10959  -0.10976   0.16032
   D22       -2.86807   0.00025  -0.00002   0.05215   0.05228  -2.81579
   D23       -2.85337   0.00028  -0.00002  -0.11091  -0.11109  -2.96446
   D24        0.29167   0.00030  -0.00003   0.05083   0.05095   0.34262
   D25        0.01268   0.00004  -0.00001  -0.00539  -0.00541   0.00727
   D26       -3.08886   0.00006  -0.00002  -0.01023  -0.01024  -3.09909
   D27        3.13577  -0.00000   0.00000  -0.00410  -0.00410   3.13167
   D28        0.03423   0.00002  -0.00001  -0.00894  -0.00893   0.02530
   D29        0.12983   0.00036  -0.00002  -0.07545  -0.07458   0.05525
   D30       -3.00844   0.00038  -0.00002   0.08046   0.07955  -2.92889
         Item               Value     Threshold  Converged?
 Maximum Force            0.001602     0.000450     NO 
 RMS     Force            0.000392     0.000300     NO 
 Maximum Displacement     0.112192     0.001800     NO 
 RMS     Displacement     0.024387     0.001200     NO 
 Predicted change in Energy=-2.561364D-05
 Lowest energy point so far.  Saving SCF results.
 GradGradGradGradGradGradGradGradGradGradGradGradGradGradGradGradGradGrad

 Leave Link  103 at Mon Sep 21 10:06:20 2026, MaxMem=  3758096384 cpu:               0.6 elap:               0.1
 (Enter /opt/software/gaussian/16RevA.03/g16/l202.exe)
                          Input orientation:                          
 ---------------------------------------------------------------------
 Center     Atomic      Atomic             Coordinates (Angstroms)
 Number     Number       Type             X           Y           Z
 ---------------------------------------------------------------------
      1          6           0       -0.844150    2.011974    0.014793
      2          6           0       -1.509843    0.790879    0.044952
      3          6           0        0.612956   -0.371379    0.049008
      4          1           0       -2.595803    0.767172    0.059341
      5          6           0        0.558863    2.050876   -0.010348
      6          6           0       -0.782588   -0.403295    0.060307
      7          1           0       -1.378179    2.955895    0.011622
      8          6           0        1.202262    3.400014   -0.038357
      9          6           0        1.281479    0.852282    0.011442
     10          1           0        1.182510   -1.295763    0.074395
     11          1           0       -1.302524   -1.356746    0.086245
     12          1           0        2.369667    0.854385    0.032408
     13          8           0        0.599682    4.433011    0.119619
     14          1           0        2.796611    2.558955   -0.720272
     15          8           0        2.506569    3.446151   -0.454388
 ---------------------------------------------------------------------
                    Distance matrix (angstroms):
                    1          2          3          4          5
     1  C    0.000000
     2  C    1.391089   0.000000
     3  C    2.793690   2.420152   0.000000
     4  H    2.149373   1.086315   3.404782   0.000000
     5  C    1.403778   2.422848   2.423586   3.406563   0.000000
     6  C    2.416481   1.398280   1.395955   2.158180   2.797755
     7  H    1.084521   2.169272   3.877728   2.505074   2.138148
     8  C    2.473314   3.764311   3.818157   4.622413   1.494965
     9  C    2.421404   2.792198   1.394876   3.878512   1.399741
    10  H    3.879694   3.406421   1.086058   4.304832   3.405306
    11  H    3.400513   2.158004   2.154391   2.486830   3.884067
    12  H    3.415983   3.880049   2.142150   4.966309   2.170813
    13  O    2.820826   4.209607   4.804927   4.863449   2.386027
    14  H    3.754284   4.717754   3.734568   5.735539   2.402010
    15  O    3.674821   4.840596   4.291004   5.785762   2.436703
                    6          7          8          9         10
     6  C    0.000000
     7  H    3.411928   0.000000
     8  C    4.291214   2.618858   0.000000
     9  C    2.416450   3.391014   2.549450   0.000000
    10  H    2.158311   4.963635   4.697173   2.151245   0.000000
    11  H    1.086313   4.313951   5.377383   3.400363   2.485810
    12  H    3.394001   4.296874   2.801441   1.088392   2.456469
    13  O    5.030312   2.470925   1.206292   3.646666   5.758523
    14  H    4.711145   4.257006   1.927262   2.396615   4.253900
    15  O    5.089370   3.943194   1.369827   2.906200   4.951615
                   11         12         13         14         15
    11  H    0.000000
    12  H    4.286838   0.000000
    13  O    6.094324   3.993372   0.000000
    14  H    5.725914   1.911640   3.007324   0.000000
    15  O    6.153803   2.640637   2.222520   0.970534   0.000000
 Stoichiometry    C7H6O2
 Framework group  C1[X(C7H6O2)]
 Deg. of freedom    39
 Full point group                 C1      NOp   1
 RotChk:  IX=0 Diff= 7.30D-03
 Largest Abelian subgroup         C1      NOp   1
 Largest concise Abelian subgroup C1      NOp   1
                         Standard orientation:                         
 ---------------------------------------------------------------------
 Center     Atomic      Atomic             Coordinates (Angstroms)
 Number     Number       Type             X           Y           Z
 ---------------------------------------------------------------------
      1          6           0       -0.483040   -1.216521    0.068863
      2          6           0       -1.873479   -1.197132    0.106708
      3          6           0       -1.849657    1.214937   -0.089492
      4          1           0       -2.425156   -2.128889    0.193655
      5          6           0        0.237238   -0.016275   -0.036986
      6          6           0       -2.559509    0.018834    0.029408
      7          1           0        0.078712   -2.142954    0.117234
      8          6           0        1.728238   -0.118027   -0.075509
      9          6           0       -0.455231    1.197328   -0.120238
     10          1           0       -2.378148    2.160853   -0.163386
     11          1           0       -3.645381    0.033652    0.056594
     12          1           0        0.076948    2.138835   -0.242490
     13          8           0        2.326081   -1.160363   -0.181624
     14          1           0        1.808065    1.731922    0.458955
     15          8           0        2.426119    1.023829    0.216988
 ---------------------------------------------------------------------
 Rotational constants (GHZ):           3.8280402           1.2192858           0.9322006
 Leave Link  202 at Mon Sep 21 10:06:20 2026, MaxMem=  3758096384 cpu:               0.3 elap:               0.1
 (Enter /opt/software/gaussian/16RevA.03/g16/l301.exe)
 Standard basis: 6-31G(d) (6D, 7F)
 Ernie: Thresh=  0.10000D-02 Tol=  0.10000D-05 Strict=F.
 There are   147 symmetry adapted cartesian basis functions of A   symmetry.
 There are   147 symmetry adapted basis functions of A   symmetry.
   147 basis functions,   276 primitive gaussians,   147 cartesian basis functions
    32 alpha electrons       32 beta electrons
       nuclear repulsion energy       404.4147968190 Hartrees.
 IExCor=  402 DFT=T Ex+Corr=B3LYP ExCW=0 ScaHFX=  0.200000
 ScaDFX=  0.800000  0.720000  1.000000  0.810000 ScalE2=  1.000000  1.000000
 IRadAn=      5 IRanWt=     -1 IRanGd=            0 ICorTp=0 IEmpDi=  4
 NAtoms=   15 NActive=   15 NUniq=   15 SFac= 1.00D+00 NAtFMM=   60 NAOKFM=F Big=F
 Integral buffers will be    131072 words long.
 Raffenetti 2 integral format.
 Two-electron integral symmetry is turned on.
 Leave Link  301 at Mon Sep 21 10:06:20 2026, MaxMem=  3758096384 cpu:               0.5 elap:               0.1
 (Enter /opt/software/gaussian/16RevA.03/g16/l302.exe)
 NPDir=0 NMtPBC=     1 NCelOv=     1 NCel=       1 NClECP=     1 NCelD=      1
         NCelK=      1 NCelE2=     1 NClLst=     1 CellRange=     0.0.
 One-electron integrals computed using PRISM.
 One-electron integral symmetry used in STVInt
 NBasis=   147 RedAO= T EigKep=  4.72D-04  NBF=   147
 NBsUse=   147 1.00D-06 EigRej= -1.00D+00 NBFU=   147
 Precomputing XC quadrature grid using
 IXCGrd= 4 IRadAn=           5 IRanWt=          -1 IRanGd=           0 AccXCQ= 0.00D+00.
 Generated NRdTot=       0 NPtTot=           0 NUsed=           0 NTot=          32
 NSgBfM=   147   147   147   147   147 MxSgAt=    15 MxSgA2=    15.
 Leave Link  302 at Mon Sep 21 10:06:21 2026, MaxMem=  3758096384 cpu:               1.1 elap:               0.2
 (Enter /opt/software/gaussian/16RevA.03/g16/l303.exe)
 DipDrv:  MaxL=1.
 Leave Link  303 at Mon Sep 21 10:06:21 2026, MaxMem=  3758096384 cpu:               0.2 elap:               0.0
 (Enter /opt/software/gaussian/16RevA.03/g16/l401.exe)
 Initial guess from the checkpoint file:  "job.chk"
 B after Tr=     0.000000   -0.000000   -0.000000
         Rot=    0.999999    0.000102    0.000313   -0.001045 Ang=   0.13 deg.
 Guess basis will be translated and rotated to current coordinates.
 JPrj=2 DoOrth=T DoCkMO=T.
 Generating alternative initial guess.
 ExpMin= 1.61D-01 ExpMax= 5.48D+03 ExpMxC= 8.25D+02 IAcc=2 IRadAn=         4 AccDes= 0.00D+00
 Harris functional with IExCor=  402 and IRadAn=       4 diagonalized for initial guess.
 HarFok:  IExCor=  402 AccDes= 0.00D+00 IRadAn=         4 IDoV= 1 UseB2=F ITyADJ=14
 ICtDFT=  3500011 ScaDFX=  1.000000  1.000000  1.000000  1.000000
 FoFCou: FMM=F IPFlag=           0 FMFlag=      100000 FMFlg1=           0
         NFxFlg=           0 DoJE=T BraDBF=F KetDBF=T FulRan=T
         wScrn=  0.000000 ICntrl=       500 IOpCl=  0 I1Cent=   200000004 NGrid=           0
         NMat0=    1 NMatS0=      1 NMatT0=    0 NMatD0=    1 NMtDS0=    0 NMtDT0=    0
 Petite list used in FoFCou.
 Harris En= -420.836549076375    
 Leave Link  401 at Mon Sep 21 10:06:21 2026, MaxMem=  3758096384 cpu:               2.4 elap:               0.3
 (Enter /opt/software/gaussian/16RevA.03/g16/l502.exe)
 Integral symmetry usage will be decided dynamically.
 Closed shell SCF:
 Using DIIS extrapolation, IDIIS=  1040.
 NGot=  3758096384 LenX=  3758050306 LenY=  3758028256
 Requested convergence on RMS density matrix=1.00D-08 within 128 cycles.
 Requested convergence on MAX density matrix=1.00D-06.
 Requested convergence on             energy=1.00D-06.
 No special actions if energy rises.
 Fock matrices will be formed incrementally for  20 cycles.
 Integral accuracy reduced to 1.0D-05 until final iterations.

 Cycle   1  Pass 0  IDiag  1:
 FoFJK:  IHMeth= 1 ICntrl=       0 DoSepK=F KAlg= 0 I1Cent=           0 FoldK=F
 IRaf= 950000000 NMat=       1 IRICut=       1 DoRegI=T DoRafI=F ISym2E= 0 IDoP0=0 IntGTp=1.
 FoFCou: FMM=F IPFlag=           0 FMFlag=      100000 FMFlg1=           0
         NFxFlg=           0 DoJE=F BraDBF=F KetDBF=F FulRan=T
         wScrn=  0.000000 ICntrl=         0 IOpCl=  0 I1Cent=           0 NGrid=           0
         NMat0=    1 NMatS0=      1 NMatT0=    0 NMatD0=    1 NMtDS0=    0 NMtDT0=    0
 Symmetry not used in FoFCou.
 E= -420.803448706234    
 DIIS: error= 4.02D-03 at cycle   1 NSaved=   1.
 NSaved= 1 IEnMin= 1 EnMin= -420.803448706234     IErMin= 1 ErrMin= 4.02D-03
 ErrMax= 4.02D-03  0.00D+00 EMaxC= 1.00D-01 BMatC= 3.10D-03 BMatP= 3.10D-03
 IDIUse=3 WtCom= 9.60D-01 WtEn= 4.02D-02
 Coeff-Com:  0.100D+01
 Coeff-En:   0.100D+01
 Coeff:      0.100D+01
 Gap=     1.916 Goal=   None    Shift=    0.000
 GapD=    1.916 DampG=2.000 DampE=1.000 DampFc=2.0000 IDamp=-1.
 RMSDP=1.03D-03 MaxDP=2.70D-02              OVMax= 2.46D-02

 Cycle   2  Pass 0  IDiag  1:
 RMSU=  1.03D-03    CP:  1.00D+00
 E= -420.808949463266     Delta-E=       -0.005500757032 Rises=F Damp=F
 DIIS: error= 5.11D-04 at cycle   2 NSaved=   2.
 NSaved= 2 IEnMin= 2 EnMin= -420.808949463266     IErMin= 2 ErrMin= 5.11D-04
 ErrMax= 5.11D-04  0.00D+00 EMaxC= 1.00D-01 BMatC= 7.70D-05 BMatP= 3.10D-03
 IDIUse=3 WtCom= 9.95D-01 WtEn= 5.11D-03
 Coeff-Com: -0.509D-01 0.105D+01
 Coeff-En:   0.000D+00 0.100D+01
 Coeff:     -0.507D-01 0.105D+01
 Gap=     0.215 Goal=   None    Shift=    0.000
 RMSDP=1.30D-04 MaxDP=2.34D-03 DE=-5.50D-03 OVMax= 4.61D-03

 Cycle   3  Pass 0  IDiag  1:
 RMSU=  1.24D-04    CP:  1.00D+00  1.04D+00
 E= -420.808946600613     Delta-E=        0.000002862653 Rises=F Damp=F
 DIIS: error= 7.10D-04 at cycle   3 NSaved=   3.
 NSaved= 3 IEnMin= 2 EnMin= -420.808949463266     IErMin= 2 ErrMin= 5.11D-04
 ErrMax= 7.10D-04  0.00D+00 EMaxC= 1.00D-01 BMatC= 1.18D-04 BMatP= 7.70D-05
 IDIUse=3 WtCom= 2.73D-01 WtEn= 7.27D-01
 Coeff-Com: -0.464D-01 0.614D+00 0.433D+00
 Coeff-En:   0.000D+00 0.510D+00 0.490D+00
 Coeff:     -0.127D-01 0.538D+00 0.475D+00
 Gap=     0.214 Goal=   None    Shift=    0.000
 RMSDP=9.38D-05 MaxDP=2.12D-03 DE= 2.86D-06 OVMax= 4.32D-03

 Cycle   4  Pass 0  IDiag  1:
 RMSU=  4.66D-05    CP:  1.00D+00  1.05D+00  3.57D-01
 E= -420.809034171568     Delta-E=       -0.000087570955 Rises=F Damp=F
 DIIS: error= 3.62D-04 at cycle   4 NSaved=   4.
 NSaved= 4 IEnMin= 4 EnMin= -420.809034171568     IErMin= 4 ErrMin= 3.62D-04
 ErrMax= 3.62D-04  0.00D+00 EMaxC= 1.00D-01 BMatC= 1.85D-05 BMatP= 7.70D-05
 IDIUse=3 WtCom= 9.96D-01 WtEn= 3.62D-03
 Coeff-Com: -0.135D-01 0.138D+00 0.298D+00 0.578D+00
 Coeff-En:   0.000D+00 0.000D+00 0.169D+00 0.831D+00
 Coeff:     -0.135D-01 0.137D+00 0.298D+00 0.579D+00
 Gap=     0.214 Goal=   None    Shift=    0.000
 RMSDP=3.15D-05 MaxDP=7.15D-04 DE=-8.76D-05 OVMax= 1.51D-03

 Cycle   5  Pass 0  IDiag  1:
 RMSU=  1.31D-05    CP:  1.00D+00  1.05D+00  5.55D-01  6.84D-01
 E= -420.809051186974     Delta-E=       -0.000017015406 Rises=F Damp=F
 DIIS: error= 8.64D-05 at cycle   5 NSaved=   5.
 NSaved= 5 IEnMin= 5 EnMin= -420.809051186974     IErMin= 5 ErrMin= 8.64D-05
 ErrMax= 8.64D-05  0.00D+00 EMaxC= 1.00D-01 BMatC= 8.90D-07 BMatP= 1.85D-05
 IDIUse=1 WtCom= 1.00D+00 WtEn= 0.00D+00
 Coeff-Com: -0.478D-02 0.389D-01 0.149D+00 0.342D+00 0.475D+00
 Coeff:     -0.478D-02 0.389D-01 0.149D+00 0.342D+00 0.475D+00
 Gap=     0.214 Goal=   None    Shift=    0.000
 RMSDP=7.57D-06 MaxDP=1.63D-04 DE=-1.70D-05 OVMax= 3.68D-04

 Initial convergence to 1.0D-05 achieved.  Increase integral accuracy.
 Cycle   6  Pass 1  IDiag  1:
 E= -420.809043687022     Delta-E=        0.000007499952 Rises=F Damp=F
 DIIS: error= 2.17D-05 at cycle   1 NSaved=   1.
 NSaved= 1 IEnMin= 1 EnMin= -420.809043687022     IErMin= 1 ErrMin= 2.17D-05
 ErrMax= 2.17D-05  0.00D+00 EMaxC= 1.00D-01 BMatC= 1.16D-07 BMatP= 1.16D-07
 IDIUse=1 WtCom= 1.00D+00 WtEn= 0.00D+00
 Coeff-Com:  0.100D+01
 Coeff:      0.100D+01
 Gap=     0.214 Goal=   None    Shift=    0.000
 RMSDP=7.57D-06 MaxDP=1.63D-04 DE= 7.50D-06 OVMax= 3.28D-04

 Cycle   7  Pass 1  IDiag  1:
 RMSU=  7.88D-06    CP:  1.00D+00
 E= -420.809043431245     Delta-E=        0.000000255777 Rises=F Damp=F
 DIIS: error= 5.28D-05 at cycle   2 NSaved=   2.
 NSaved= 2 IEnMin= 1 EnMin= -420.809043687022     IErMin= 1 ErrMin= 2.17D-05
 ErrMax= 5.28D-05  0.00D+00 EMaxC= 1.00D-01 BMatC= 4.43D-07 BMatP= 1.16D-07
 IDIUse=1 WtCom= 1.00D+00 WtEn= 0.00D+00
 Coeff-Com:  0.670D+00 0.330D+00
 Coeff:      0.670D+00 0.330D+00
 Gap=     0.214 Goal=   None    Shift=    0.000
 RMSDP=4.19D-06 MaxDP=1.41D-04 DE= 2.56D-07 OVMax= 2.53D-04

 Cycle   8  Pass 1  IDiag  1:
 RMSU=  2.94D-06    CP:  1.00D+00  6.23D-01
 E= -420.809043788257     Delta-E=       -0.000000357012 Rises=F Damp=F
 DIIS: error= 5.99D-06 at cycle   3 NSaved=   3.
 NSaved= 3 IEnMin= 3 EnMin= -420.809043788257     IErMin= 3 ErrMin= 5.99D-06
 ErrMax= 5.99D-06  0.00D+00 EMaxC= 1.00D-01 BMatC= 5.11D-09 BMatP= 1.16D-07
 IDIUse=1 WtCom= 1.00D+00 WtEn= 0.00D+00
 Coeff-Com:  0.168D+00 0.128D+00 0.704D+00
 Coeff:      0.168D+00 0.128D+00 0.704D+00
 Gap=     0.214 Goal=   None    Shift=    0.000
 RMSDP=6.64D-07 MaxDP=2.16D-05 DE=-3.57D-07 OVMax= 2.32D-05

 Cycle   9  Pass 1  IDiag  1:
 RMSU=  5.92D-07    CP:  1.00D+00  6.54D-01  9.43D-01
 E= -420.809043790774     Delta-E=       -0.000000002517 Rises=F Damp=F
 DIIS: error= 2.65D-06 at cycle   4 NSaved=   4.
 NSaved= 4 IEnMin= 4 EnMin= -420.809043790774     IErMin= 4 ErrMin= 2.65D-06
 ErrMax= 2.65D-06  0.00D+00 EMaxC= 1.00D-01 BMatC= 2.02D-09 BMatP= 5.11D-09
 IDIUse=1 WtCom= 1.00D+00 WtEn= 0.00D+00
 Coeff-Com:  0.201D-01 0.395D-01 0.438D+00 0.503D+00
 Coeff:      0.201D-01 0.395D-01 0.438D+00 0.503D+00
 Gap=     0.214 Goal=   None    Shift=    0.000
 RMSDP=3.06D-07 MaxDP=6.60D-06 DE=-2.52D-09 OVMax= 1.19D-05

 Cycle  10  Pass 1  IDiag  1:
 RMSU=  1.79D-07    CP:  1.00D+00  6.54D-01  9.57D-01  5.89D-01
 E= -420.809043792422     Delta-E=       -0.000000001648 Rises=F Damp=F
 DIIS: error= 5.15D-07 at cycle   5 NSaved=   5.
 NSaved= 5 IEnMin= 5 EnMin= -420.809043792422     IErMin= 5 ErrMin= 5.15D-07
 ErrMax= 5.15D-07  0.00D+00 EMaxC= 1.00D-01 BMatC= 6.21D-11 BMatP= 2.02D-09
 IDIUse=1 WtCom= 1.00D+00 WtEn= 0.00D+00
 Coeff-Com: -0.972D-02 0.385D-02 0.110D+00 0.208D+00 0.688D+00
 Coeff:     -0.972D-02 0.385D-02 0.110D+00 0.208D+00 0.688D+00
 Gap=     0.214 Goal=   None    Shift=    0.000
 RMSDP=7.28D-08 MaxDP=1.28D-06 DE=-1.65D-09 OVMax= 4.06D-06

 Cycle  11  Pass 1  IDiag  1:
 RMSU=  6.10D-08    CP:  1.00D+00  6.56D-01  9.61D-01  6.41D-01  8.89D-01
 E= -420.809043792481     Delta-E=       -0.000000000059 Rises=F Damp=F
 DIIS: error= 3.02D-07 at cycle   6 NSaved=   6.
 NSaved= 6 IEnMin= 6 EnMin= -420.809043792481     IErMin= 6 ErrMin= 3.02D-07
 ErrMax= 3.02D-07  0.00D+00 EMaxC= 1.00D-01 BMatC= 1.10D-11 BMatP= 6.21D-11
 IDIUse=1 WtCom= 1.00D+00 WtEn= 0.00D+00
 Coeff-Com: -0.682D-02-0.599D-04 0.373D-01 0.902D-01 0.383D+00 0.496D+00
 Coeff:     -0.682D-02-0.599D-04 0.373D-01 0.902D-01 0.383D+00 0.496D+00
 Gap=     0.214 Goal=   None    Shift=    0.000
 RMSDP=3.21D-08 MaxDP=6.55D-07 DE=-5.87D-11 OVMax= 1.61D-06

 Cycle  12  Pass 1  IDiag  1:
 RMSU=  2.53D-08    CP:  1.00D+00  6.56D-01  9.61D-01  6.37D-01  9.65D-01
                    CP:  7.82D-01
 E= -420.809043792490     Delta-E=       -0.000000000009 Rises=F Damp=F
 DIIS: error= 1.09D-07 at cycle   7 NSaved=   7.
 NSaved= 7 IEnMin= 7 EnMin= -420.809043792490     IErMin= 7 ErrMin= 1.09D-07
 ErrMax= 1.09D-07  0.00D+00 EMaxC= 1.00D-01 BMatC= 1.57D-12 BMatP= 1.10D-11
 IDIUse=1 WtCom= 1.00D+00 WtEn= 0.00D+00
 Coeff-Com: -0.708D-03-0.113D-02-0.128D-01-0.146D-01-0.756D-02 0.273D+00
 Coeff-Com:  0.764D+00
 Coeff:     -0.708D-03-0.113D-02-0.128D-01-0.146D-01-0.756D-02 0.273D+00
 Coeff:      0.764D+00
 Gap=     0.214 Goal=   None    Shift=    0.000
 RMSDP=1.33D-08 MaxDP=2.61D-07 DE=-9.09D-12 OVMax= 7.17D-07

 Cycle  13  Pass 1  IDiag  1:
 RMSU=  6.33D-09    CP:  1.00D+00  6.56D-01  9.61D-01  6.45D-01  9.84D-01
                    CP:  9.29D-01  8.25D-01
 E= -420.809043792494     Delta-E=       -0.000000000004 Rises=F Damp=F
 DIIS: error= 2.54D-08 at cycle   8 NSaved=   8.
 NSaved= 8 IEnMin= 8 EnMin= -420.809043792494     IErMin= 8 ErrMin= 2.54D-08
 ErrMax= 2.54D-08  0.00D+00 EMaxC= 1.00D-01 BMatC= 1.54D-13 BMatP= 1.57D-12
 IDIUse=1 WtCom= 1.00D+00 WtEn= 0.00D+00
 Coeff-Com:  0.173D-03-0.556D-03-0.906D-02-0.138D-01-0.324D-01 0.994D-01
 Coeff-Com:  0.392D+00 0.564D+00
 Coeff:      0.173D-03-0.556D-03-0.906D-02-0.138D-01-0.324D-01 0.994D-01
 Coeff:      0.392D+00 0.564D+00
 Gap=     0.214 Goal=   None    Shift=    0.000
 RMSDP=3.35D-09 MaxDP=6.17D-08 DE=-3.98D-12 OVMax= 1.51D-07

 SCF Done:  E(RB3LYP) =  -420.809043792     A.U. after   13 cycles
            NFock= 13  Conv=0.33D-08     -V/T= 2.0093
 KE= 4.169380891233D+02 PE=-1.789385594869D+03 EE= 5.472236651338D+02
 Leave Link  502 at Mon Sep 21 10:06:26 2026, MaxMem=  3758096384 cpu:              40.5 elap:               5.2
 (Enter /opt/software/gaussian/16RevA.03/g16/l701.exe)
 ... and contract with generalized density number  0.
 Compute integral first derivatives.
 Leave Link  701 at Mon Sep 21 10:06:26 2026, MaxMem=  3758096384 cpu:               0.6 elap:               0.1
 (Enter /opt/software/gaussian/16RevA.03/g16/l702.exe)
 L702 exits ... SP integral derivatives will be done elsewhere.
 Leave Link  702 at Mon Sep 21 10:06:26 2026, MaxMem=  3758096384 cpu:               0.1 elap:               0.0
 (Enter /opt/software/gaussian/16RevA.03/g16/l703.exe)
 Integral derivatives from FoFJK, PRISM(SPDF).
 Compute integral first derivatives, UseDBF=F ICtDFT=           0.
 Calling FoFJK, ICntrl=      2127 FMM=F ISym2X=0 I1Cent= 0 IOpClX= 0 NMat=1 NMatS=1 NMatT=0.
 FoFJK:  IHMeth= 1 ICntrl=    2127 DoSepK=F KAlg= 0 I1Cent=           0 FoldK=F
 IRaf=         0 NMat=       1 IRICut=       1 DoRegI=T DoRafI=F ISym2E= 0 IDoP0=0 IntGTp=1.
 FoFCou: FMM=F IPFlag=           0 FMFlag=      100000 FMFlg1=         800
         NFxFlg=           0 DoJE=F BraDBF=F KetDBF=F FulRan=T
         wScrn=  0.000000 ICntrl=      2127 IOpCl=  0 I1Cent=           0 NGrid=           0
         NMat0=    1 NMatS0=      1 NMatT0=    0 NMatD0=    1 NMtDS0=    0 NMtDT0=    0
 Symmetry not used in FoFCou.
 Leave Link  703 at Mon Sep 21 10:06:28 2026, MaxMem=  3758096384 cpu:               9.4 elap:               1.2
 (Enter /opt/software/gaussian/16RevA.03/g16/l716.exe)
 Dipole        =-1.65058963D+00 9.12470219D-01 1.98717774D-01
 ***** Axes restored to original set *****
 -------------------------------------------------------------------
 Center     Atomic                   Forces (Hartrees/Bohr)
 Number     Number              X              Y              Z
 -------------------------------------------------------------------
      1        6           0.002279619   -0.000043234    0.000698444
      2        6          -0.000338239   -0.000305055   -0.000347429
      3        6           0.000129949   -0.000009153   -0.000569328
      4        1          -0.000037182   -0.000082767   -0.000104485
      5        6          -0.002294127   -0.000660802    0.005617228
      6        6           0.000292749    0.000313196    0.000099000
      7        1          -0.000795324   -0.000332243    0.000044656
      8        6           0.003462989    0.001949849   -0.022876445
      9        6          -0.000222738   -0.001658075    0.000712221
     10        1          -0.000127498   -0.000211583   -0.000076871
     11        1          -0.000066453   -0.000110024    0.000085256
     12        1          -0.000112078   -0.000725530    0.000909556
     13        8          -0.000762916    0.002185759    0.009257126
     14        1           0.000960970    0.000872417    0.000053431
     15        8          -0.002369720   -0.001182752    0.006497640
 -------------------------------------------------------------------
 Cartesian Forces:  Max     0.022876445 RMS     0.004028869
 Leave Link  716 at Mon Sep 21 10:06:28 2026, MaxMem=  3758096384 cpu:               0.2 elap:               0.0
 (Enter /opt/software/gaussian/16RevA.03/g16/l103.exe)

 GradGradGradGradGradGradGradGradGradGradGradGradGradGradGradGradGradGrad
 Berny optimization.
 Using GEDIIS/GDIIS optimizer.
 FormGI is forming the generalized inverse of G from B-inverse, IUseBI=4.
 Internal  Forces:  Max     0.006087846 RMS     0.001889225
 Search for a local minimum.
 Step number  13 out of a maximum of   77
 All quantities printed in internal units (Hartrees-Bohrs-Radians)
 RMS Force = .18892D-02 SwitMx=.10000D-02 MixMth= 1
 Mixed Optimization -- RFO/linear search
 Update second derivatives using D2CorX and points    2    3    4    5    6
                                                      7   10    9   11    8
                                                     13   12
 DE=  1.40D-03 DEPred=-2.56D-05 R=-5.48D+01
 Trust test=-5.48D+01 RLast= 2.09D-01 DXMaxT set to 5.00D-02
 ITU= -1  0  0 -1 -1  0  1  1  1 -1  1  1  0
 Use linear search instead of GDIIS.
     Eigenvalues ---    0.01389   0.01711   0.02000   0.02102   0.02129
     Eigenvalues ---    0.02160   0.02179   0.02186   0.02190   0.02195
     Eigenvalues ---    0.02698   0.05267   0.07811   0.15886   0.16000
     Eigenvalues ---    0.16055   0.16193   0.17623   0.18827   0.21974
     Eigenvalues ---    0.22101   0.23463   0.27423   0.34767   0.35077
     Eigenvalues ---    0.35104   0.35109   0.35247   0.36038   0.38137
     Eigenvalues ---    0.41646   0.42368   0.46007   0.46593   0.46732
     Eigenvalues ---    0.48625   0.53687   0.85073   1.12091
 RFO step:  Lambda=-4.12953668D-05 EMin= 1.38896405D-02
 Quartic linear search produced a step of -0.97776.
 Iteration  1 RMS(Cart)=  0.02438326 RMS(Int)=  0.00126946
 Iteration  2 RMS(Cart)=  0.00149222 RMS(Int)=  0.00007729
 Iteration  3 RMS(Cart)=  0.00000191 RMS(Int)=  0.00007727
 Iteration  4 RMS(Cart)=  0.00000000 RMS(Int)=  0.00007727
 ITry= 1 IFail=0 DXMaxC= 1.26D-01 DCOld= 1.00D+10 DXMaxT= 5.00D-02 DXLimC= 3.00D+00 Rises=F
 Variable       Old X    -DE/DX   Delta X   Delta X   Delta X     New X
                                 (Linear)    (Quad)   (Total)
    R1        2.62878   0.00045   0.00085   0.00257   0.00342   2.63219
    R2        2.65276  -0.00070  -0.00194  -0.00362  -0.00556   2.64719
    R3        2.04945   0.00010   0.00051  -0.00049   0.00003   2.04947
    R4        2.05284   0.00004  -0.00002  -0.00009  -0.00011   2.05273
    R5        2.64237  -0.00044  -0.00071  -0.00066  -0.00137   2.64099
    R6        2.63797  -0.00061  -0.00116   0.00172   0.00056   2.63853
    R7        2.63593  -0.00005   0.00027  -0.00089  -0.00062   2.63532
    R8        2.05235   0.00011   0.00033   0.00001   0.00034   2.05269
    R9        2.82507   0.00414   0.01222   0.00767   0.01989   2.84496
   R10        2.64513   0.00246   0.00421   0.00162   0.00583   2.65096
   R11        2.05283   0.00013   0.00041  -0.00002   0.00040   2.05323
   R12        2.27956   0.00347   0.00454   0.00321   0.00774   2.28731
   R13        2.58860  -0.00334  -0.01773  -0.01333  -0.03106   2.55754
   R14        2.05676  -0.00010   0.00035   0.00054   0.00090   2.05766
   R15        1.83404  -0.00052  -0.00062   0.00018  -0.00045   1.83360
    A1        2.09786   0.00069   0.00469  -0.00077   0.00392   2.10177
    A2        2.12754  -0.00122  -0.01083  -0.00445  -0.01528   2.11226
    A3        2.05779   0.00053   0.00614   0.00522   0.01136   2.06914
    A4        2.09189  -0.00005  -0.00019  -0.00188  -0.00207   2.08982
    A5        2.09556   0.00025  -0.00001   0.00092   0.00091   2.09648
    A6        2.09573  -0.00021   0.00020   0.00096   0.00115   2.09688
    A7        2.09371  -0.00002   0.00104  -0.00038   0.00066   2.09437
    A8        2.09974  -0.00022  -0.00071  -0.00003  -0.00073   2.09900
    A9        2.08973   0.00023  -0.00034   0.00040   0.00007   2.08980
   A10        2.04372  -0.00021  -0.00154   0.00719   0.00565   2.04937
   A11        2.08514  -0.00143  -0.00647   0.00065  -0.00581   2.07932
   A12        2.15421   0.00164   0.00799  -0.00786   0.00013   2.15434
   A13        2.09479  -0.00003  -0.00198  -0.00081  -0.00279   2.09200
   A14        2.09544   0.00001   0.00080   0.00064   0.00144   2.09688
   A15        2.09294   0.00002   0.00117   0.00017   0.00134   2.09428
   A16        2.15960  -0.00201  -0.01215  -0.00433  -0.01617   2.14343
   A17        2.03295   0.00330   0.01539   0.00025   0.01594   2.04889
   A18        2.07895   0.00021   0.00817   0.00338   0.01185   2.09080
   A19        2.09924   0.00053   0.00265   0.00037   0.00302   2.10225
   A20        2.07186  -0.00103  -0.01005   0.00519  -0.00486   2.06700
   A21        2.11157   0.00050   0.00726  -0.00551   0.00175   2.11332
   A22        1.91449   0.00215   0.01714  -0.00139   0.01575   1.93024
    D1       -3.13632   0.00023   0.00262   0.00126   0.00388  -3.13244
    D2        0.00824   0.00022   0.00271   0.00116   0.00387   0.01211
    D3        0.00722  -0.00009  -0.00033   0.00026  -0.00006   0.00717
    D4       -3.13140  -0.00010  -0.00024   0.00016  -0.00006  -3.13147
    D5       -3.13881  -0.00038  -0.00461   0.00005  -0.00455   3.13982
    D6       -0.01334  -0.00046  -0.00570  -0.00123  -0.00693  -0.02027
    D7        0.00091  -0.00008  -0.00176   0.00100  -0.00074   0.00017
    D8        3.12638  -0.00016  -0.00285  -0.00028  -0.00312   3.12326
    D9        0.00300   0.00003   0.00083  -0.00034   0.00049   0.00349
   D10        3.13905  -0.00005  -0.00026  -0.00043  -0.00069   3.13836
   D11       -3.13562   0.00002   0.00092  -0.00044   0.00049  -3.13513
   D12        0.00044  -0.00006  -0.00017  -0.00053  -0.00069  -0.00026
   D13       -0.00906  -0.00001  -0.00121  -0.00039  -0.00160  -0.01066
   D14        3.13806   0.00007  -0.00012  -0.00030  -0.00042   3.13764
   D15        3.12714  -0.00013  -0.00227  -0.00050  -0.00277   3.12437
   D16       -0.00892  -0.00004  -0.00118  -0.00041  -0.00159  -0.01051
   D17        0.00388  -0.00025  -0.00189   0.00032  -0.00157   0.00231
   D18        3.11104  -0.00032  -0.00612   0.00191  -0.00422   3.10682
   D19       -3.13235  -0.00013  -0.00084   0.00043  -0.00040  -3.13276
   D20       -0.02519  -0.00020  -0.00507   0.00202  -0.00306  -0.02825
   D21        0.16032   0.00597   0.10732   0.00335   0.11057   0.27088
   D22       -2.81579  -0.00456  -0.05112   0.00796  -0.04306  -2.85885
   D23       -2.96446   0.00609   0.10862   0.00460   0.11311  -2.85134
   D24        0.34262  -0.00444  -0.04982   0.00921  -0.04052   0.30211
   D25        0.00727   0.00048   0.00529   0.00050   0.00579   0.01307
   D26       -3.09909   0.00058   0.01001  -0.00134   0.00865  -3.09044
   D27        3.13167   0.00037   0.00401  -0.00072   0.00331   3.13498
   D28        0.02530   0.00048   0.00873  -0.00256   0.00617   0.03147
   D29        0.05525   0.00473   0.07292   0.01232   0.08544   0.14069
   D30       -2.92889  -0.00505  -0.07778   0.01746  -0.06053  -2.98942
         Item               Value     Threshold  Converged?
 Maximum Force            0.006088     0.000450     NO 
 RMS     Force            0.001889     0.000300     NO 
 Maximum Displacement     0.125629     0.001800     NO 
 RMS     Displacement     0.024115     0.001200     NO 
 Predicted change in Energy=-3.170453D-05
 GradGradGradGradGradGradGradGradGradGradGradGradGradGradGradGradGradGrad

 Leave Link  103 at Mon Sep 21 10:06:28 2026, MaxMem=  3758096384 cpu:               2.3 elap:               0.4
 (Enter /opt/software/gaussian/16RevA.03/g16/l202.exe)
                          Input orientation:                          
 ---------------------------------------------------------------------
 Center     Atomic      Atomic             Coordinates (Angstroms)
 Number     Number       Type             X           Y           Z
 ---------------------------------------------------------------------
      1          6           0       -0.843184    2.008720    0.001488
      2          6           0       -1.511487    0.787296    0.042195
      3          6           0        0.608413   -0.375349    0.055699
      4          1           0       -2.597460    0.767520    0.057143
      5          6           0        0.556683    2.050692   -0.029273
      6          6           0       -0.787412   -0.407794    0.067289
      7          1           0       -1.390229    2.945122   -0.008976
      8          6           0        1.208791    3.406851   -0.074922
      9          6           0        1.277032    0.847466    0.006277
     10          1           0        1.177809   -1.299708    0.091197
     11          1           0       -1.308295   -1.360686    0.102077
     12          1           0        2.365600    0.844479    0.031580
     13          8           0        0.615423    4.429019    0.186099
     14          1           0        2.814677    2.591184   -0.747834
     15          8           0        2.511147    3.459594   -0.439273
 ---------------------------------------------------------------------
                    Distance matrix (angstroms):
                    1          2          3          4          5
     1  C    0.000000
     2  C    1.392897   0.000000
     3  C    2.791749   2.417830   0.000000
     4  H    2.149688   1.086256   3.403494   0.000000
     5  C    1.400834   2.424583   2.428079   3.406261   0.000000
     6  C    2.418053   1.397553   1.396251   2.158179   2.803581
     7  H    1.084535   2.161835   3.876117   2.490728   2.142635
     8  C    2.484192   3.778319   3.831781   4.633687   1.505488
     9  C    2.417406   2.789400   1.394550   3.875651   1.402825
    10  H    3.877906   3.404453   1.086237   4.304329   3.409617
    11  H    3.402843   2.158402   2.155646   2.488619   3.890102
    12  H    3.413600   3.877524   2.139221   4.963723   2.175048
    13  O    2.831866   4.219787   4.806143   4.872969   2.388781
    14  H    3.778981   4.753299   3.783329   5.767578   2.430431
    15  O    3.681147   4.853306   4.309546   5.795822   2.443980
                    6          7          8          9         10
     6  C    0.000000
     7  H    3.407528   0.000000
     8  C    4.307733   2.640539   0.000000
     9  C    2.416885   3.393328   2.561581   0.000000
    10  H    2.158281   4.962201   4.709591   2.151142   0.000000
    11  H    1.086523   4.308019   5.394113   3.401328   2.486875
    12  H    3.392779   4.303557   2.813415   1.088866   2.451926
    13  O    5.037541   2.502528   1.210391   3.646585   5.757048
    14  H    4.757451   4.283972   1.922757   2.444092   4.303760
    15  O    5.108208   3.958608   1.353390   2.923143   4.970930
                   11         12         13         14         15
    11  H    0.000000
    12  H    4.285467   0.000000
    13  O    6.101511   3.991983   0.000000
    14  H    5.773952   1.964723   3.014396   0.000000
    15  O    6.173840   2.661149   2.219154   0.970297   0.000000
 Stoichiometry    C7H6O2
 Framework group  C1[X(C7H6O2)]
 Deg. of freedom    39
 Full point group                 C1      NOp   1
 RotChk:  IX=0 Diff= 8.73D-03
 Largest Abelian subgroup         C1      NOp   1
 Largest concise Abelian subgroup C1      NOp   1
                         Standard orientation:                         
 ---------------------------------------------------------------------
 Center     Atomic      Atomic             Coordinates (Angstroms)
 Number     Number       Type             X           Y           Z
 ---------------------------------------------------------------------
      1          6           0       -0.488550   -1.212437    0.088901
      2          6           0       -1.881134   -1.192478    0.110706
      3          6           0       -1.852779    1.215638   -0.103951
      4          1           0       -2.432060   -2.124534    0.198475
      5          6           0        0.236485   -0.018151   -0.012784
      6          6           0       -2.566660    0.021738    0.016444
      7          1           0        0.058127   -2.147006    0.151684
      8          6           0        1.738571   -0.118151   -0.028046
      9          6           0       -0.458429    1.195986   -0.117109
     10          1           0       -2.379160    2.161560   -0.193760
     11          1           0       -3.652979    0.037486    0.030393
     12          1           0        0.072114    2.138188   -0.245210
     13          8           0        2.324643   -1.157543   -0.231093
     14          1           0        1.848091    1.730409    0.489472
     15          8           0        2.440463    1.013922    0.211591
 ---------------------------------------------------------------------
 Rotational constants (GHZ):           3.8388327           1.2104408           0.9287797
 Leave Link  202 at Mon Sep 21 10:06:28 2026, MaxMem=  3758096384 cpu:               0.3 elap:               0.1
 (Enter /opt/software/gaussian/16RevA.03/g16/l301.exe)
 Standard basis: 6-31G(d) (6D, 7F)
 Ernie: Thresh=  0.10000D-02 Tol=  0.10000D-05 Strict=F.
 There are   147 symmetry adapted cartesian basis functions of A   symmetry.
 There are   147 symmetry adapted basis functions of A   symmetry.
   147 basis functions,   276 primitive gaussians,   147 cartesian basis functions
    32 alpha electrons       32 beta electrons
       nuclear repulsion energy       403.9925467339 Hartrees.
 IExCor=  402 DFT=T Ex+Corr=B3LYP ExCW=0 ScaHFX=  0.200000
 ScaDFX=  0.800000  0.720000  1.000000  0.810000 ScalE2=  1.000000  1.000000
 IRadAn=      5 IRanWt=     -1 IRanGd=            0 ICorTp=0 IEmpDi=  4
 NAtoms=   15 NActive=   15 NUniq=   15 SFac= 1.00D+00 NAtFMM=   60 NAOKFM=F Big=F
 Integral buffers will be    131072 words long.
 Raffenetti 2 integral format.
 Two-electron integral symmetry is turned on.
 Leave Link  301 at Mon Sep 21 10:06:28 2026, MaxMem=  3758096384 cpu:               0.5 elap:               0.1
 (Enter /opt/software/gaussian/16RevA.03/g16/l302.exe)
 NPDir=0 NMtPBC=     1 NCelOv=     1 NCel=       1 NClECP=     1 NCelD=      1
         NCelK=      1 NCelE2=     1 NClLst=     1 CellRange=     0.0.
 One-electron integrals computed using PRISM.
 One-electron integral symmetry used in STVInt
 NBasis=   147 RedAO= T EigKep=  4.72D-04  NBF=   147
 NBsUse=   147 1.00D-06 EigRej= -1.00D+00 NBFU=   147
 Precomputing XC quadrature grid using
 IXCGrd= 4 IRadAn=           5 IRanWt=          -1 IRanGd=           0 AccXCQ= 0.00D+00.
 Generated NRdTot=       0 NPtTot=           0 NUsed=           0 NTot=          32
 NSgBfM=   147   147   147   147   147 MxSgAt=    15 MxSgA2=    15.
 Leave Link  302 at Mon Sep 21 10:06:29 2026, MaxMem=  3758096384 cpu:               1.0 elap:               0.1
 (Enter /opt/software/gaussian/16RevA.03/g16/l303.exe)
 DipDrv:  MaxL=1.
 Leave Link  303 at Mon Sep 21 10:06:29 2026, MaxMem=  3758096384 cpu:               0.2 elap:               0.0
 (Enter /opt/software/gaussian/16RevA.03/g16/l401.exe)
 Lowest energy guess from the checkpoint file:  "job.chk"
 B after Tr=    -0.000000   -0.000000   -0.000000
         Rot=    1.000000   -0.000113    0.000162   -0.000076 Ang=  -0.02 deg.
 Guess basis will be translated and rotated to current coordinates.
 B after Tr=    -0.000000    0.000000    0.000000
         Rot=    0.999999   -0.000204   -0.000159    0.000968 Ang=  -0.11 deg.
 Guess basis will be translated and rotated to current coordinates.
 CkInt1:  FT= 2.22D-02
 Max alpha theta=  2.574 degrees.
 JPrj=2 DoOrth=T DoCkMO=T.
 Leave Link  401 at Mon Sep 21 10:06:29 2026, MaxMem=  3758096384 cpu:               1.2 elap:               0.2
 (Enter /opt/software/gaussian/16RevA.03/g16/l502.exe)
 Integral symmetry usage will be decided dynamically.
 Closed shell SCF:
 Using DIIS extrapolation, IDIIS=  1040.
 NGot=  3758096384 LenX=  3758050306 LenY=  3758028256
 Requested convergence on RMS density matrix=1.00D-08 within 128 cycles.
 Requested convergence on MAX density matrix=1.00D-06.
 Requested convergence on             energy=1.00D-06.
 No special actions if energy rises.
 Fock matrices will be formed incrementally for  20 cycles.
 Integral accuracy reduced to 1.0D-05 until final iterations.

 Cycle   1  Pass 0  IDiag  1:
 FoFJK:  IHMeth= 1 ICntrl=       0 DoSepK=F KAlg= 0 I1Cent=           0 FoldK=F
 IRaf= 940000000 NMat=       1 IRICut=       1 DoRegI=T DoRafI=F ISym2E= 0 IDoP0=0 IntGTp=1.
 FoFCou: FMM=F IPFlag=           0 FMFlag=      100000 FMFlg1=           0
         NFxFlg=           0 DoJE=F BraDBF=F KetDBF=F FulRan=T
         wScrn=  0.000000 ICntrl=         0 IOpCl=  0 I1Cent=           0 NGrid=           0
         NMat0=    1 NMatS0=      1 NMatT0=    0 NMatD0=    1 NMtDS0=    0 NMtDT0=    0
 Symmetry not used in FoFCou.
 E= -420.810289677318    
 DIIS: error= 5.28D-04 at cycle   1 NSaved=   1.
 NSaved= 1 IEnMin= 1 EnMin= -420.810289677318     IErMin= 1 ErrMin= 5.28D-04
 ErrMax= 5.28D-04  0.00D+00 EMaxC= 1.00D-01 BMatC= 8.33D-05 BMatP= 8.33D-05
 IDIUse=3 WtCom= 9.95D-01 WtEn= 5.28D-03
 Coeff-Com:  0.100D+01
 Coeff-En:   0.100D+01
 Coeff:      0.100D+01
 Gap=    10.428 Goal=   None    Shift=    0.000
 RMSDP=1.26D-04 MaxDP=2.87D-03              OVMax= 3.55D-03

 Cycle   2  Pass 0  IDiag  1:
 RMSU=  1.26D-04    CP:  1.00D+00
 E= -420.810414918909     Delta-E=       -0.000125241591 Rises=F Damp=F
 DIIS: error= 2.71D-04 at cycle   2 NSaved=   2.
 NSaved= 2 IEnMin= 2 EnMin= -420.810414918909     IErMin= 2 ErrMin= 2.71D-04
 ErrMax= 2.71D-04  0.00D+00 EMaxC= 1.00D-01 BMatC= 1.62D-05 BMatP= 8.33D-05
 IDIUse=3 WtCom= 9.97D-01 WtEn= 2.71D-03
 Coeff-Com:  0.199D+00 0.801D+00
 Coeff-En:   0.000D+00 0.100D+01
 Coeff:      0.198D+00 0.802D+00
 Gap=     0.214 Goal=   None    Shift=    0.000
 RMSDP=5.09D-05 MaxDP=1.68D-03 DE=-1.25D-04 OVMax= 3.02D-03

 Cycle   3  Pass 0  IDiag  1:
 RMSU=  5.08D-05    CP:  1.00D+00  9.75D-01
 E= -420.810404855873     Delta-E=        0.000010063036 Rises=F Damp=F
 DIIS: error= 4.08D-04 at cycle   3 NSaved=   3.
 NSaved= 3 IEnMin= 2 EnMin= -420.810414918909     IErMin= 2 ErrMin= 2.71D-04
 ErrMax= 4.08D-04  0.00D+00 EMaxC= 1.00D-01 BMatC= 2.99D-05 BMatP= 1.62D-05
 IDIUse=3 WtCom= 3.31D-01 WtEn= 6.69D-01
 Coeff-Com: -0.290D-01 0.588D+00 0.441D+00
 Coeff-En:   0.000D+00 0.616D+00 0.384D+00
 Coeff:     -0.960D-02 0.607D+00 0.403D+00
 Gap=     0.214 Goal=   None    Shift=    0.000
 RMSDP=3.17D-05 MaxDP=1.07D-03 DE= 1.01D-05 OVMax= 1.94D-03

 Cycle   4  Pass 0  IDiag  1:
 RMSU=  1.14D-05    CP:  1.00D+00  1.04D+00  4.43D-01
 E= -420.810427289701     Delta-E=       -0.000022433828 Rises=F Damp=F
 DIIS: error= 5.14D-05 at cycle   4 NSaved=   4.
 NSaved= 4 IEnMin= 4 EnMin= -420.810427289701     IErMin= 4 ErrMin= 5.14D-05
 ErrMax= 5.14D-05  0.00D+00 EMaxC= 1.00D-01 BMatC= 4.73D-07 BMatP= 1.62D-05
 IDIUse=1 WtCom= 1.00D+00 WtEn= 0.00D+00
 Coeff-Com: -0.225D-01 0.294D+00 0.213D+00 0.516D+00
 Coeff:     -0.225D-01 0.294D+00 0.213D+00 0.516D+00
 Gap=     0.214 Goal=   None    Shift=    0.000
 RMSDP=5.63D-06 MaxDP=1.44D-04 DE=-2.24D-05 OVMax= 2.13D-04

 Initial convergence to 1.0D-05 achieved.  Increase integral accuracy.
 Cycle   5  Pass 1  IDiag  1:
 E= -420.810422620062     Delta-E=        0.000004669639 Rises=F Damp=F
 DIIS: error= 1.92D-05 at cycle   1 NSaved=   1.
 NSaved= 1 IEnMin= 1 EnMin= -420.810422620062     IErMin= 1 ErrMin= 1.92D-05
 ErrMax= 1.92D-05  0.00D+00 EMaxC= 1.00D-01 BMatC= 9.82D-08 BMatP= 9.82D-08
 IDIUse=1 WtCom= 1.00D+00 WtEn= 0.00D+00
 Coeff-Com:  0.100D+01
 Coeff:      0.100D+01
 Gap=     0.214 Goal=   None    Shift=    0.000
 RMSDP=5.63D-06 MaxDP=1.44D-04 DE= 4.67D-06 OVMax= 1.87D-04

 Cycle   6  Pass 1  IDiag  1:
 RMSU=  6.83D-06    CP:  1.00D+00
 E= -420.810422474008     Delta-E=        0.000000146054 Rises=F Damp=F
 DIIS: error= 3.64D-05 at cycle   2 NSaved=   2.
 NSaved= 2 IEnMin= 1 EnMin= -420.810422620062     IErMin= 1 ErrMin= 1.92D-05
 ErrMax= 3.64D-05  0.00D+00 EMaxC= 1.00D-01 BMatC= 2.66D-07 BMatP= 9.82D-08
 IDIUse=1 WtCom= 1.00D+00 WtEn= 0.00D+00
 Coeff-Com:  0.628D+00 0.372D+00
 Coeff:      0.628D+00 0.372D+00
 Gap=     0.214 Goal=   None    Shift=    0.000
 RMSDP=3.33D-06 MaxDP=8.80D-05 DE= 1.46D-07 OVMax= 1.36D-04

 Cycle   7  Pass 1  IDiag  1:
 RMSU=  2.51D-06    CP:  1.00D+00  6.79D-01
 E= -420.810422695760     Delta-E=       -0.000000221752 Rises=F Damp=F
 DIIS: error= 4.89D-06 at cycle   3 NSaved=   3.
 NSaved= 3 IEnMin= 3 EnMin= -420.810422695760     IErMin= 3 ErrMin= 4.89D-06
 ErrMax= 4.89D-06  0.00D+00 EMaxC= 1.00D-01 BMatC= 4.52D-09 BMatP= 9.82D-08
 IDIUse=1 WtCom= 1.00D+00 WtEn= 0.00D+00
 Coeff-Com:  0.193D+00 0.161D+00 0.646D+00
 Coeff:      0.193D+00 0.161D+00 0.646D+00
 Gap=     0.214 Goal=   None    Shift=    0.000
 RMSDP=7.51D-07 MaxDP=2.05D-05 DE=-2.22D-07 OVMax= 4.00D-05

 Cycle   8  Pass 1  IDiag  1:
 RMSU=  6.18D-07    CP:  1.00D+00  7.15D-01  8.61D-01
 E= -420.810422697588     Delta-E=       -0.000000001828 Rises=F Damp=F
 DIIS: error= 3.82D-06 at cycle   4 NSaved=   4.
 NSaved= 4 IEnMin= 4 EnMin= -420.810422697588     IErMin= 4 ErrMin= 3.82D-06
 ErrMax= 3.82D-06  0.00D+00 EMaxC= 1.00D-01 BMatC= 3.07D-09 BMatP= 4.52D-09
 IDIUse=1 WtCom= 1.00D+00 WtEn= 0.00D+00
 Coeff-Com:  0.174D-01 0.441D-01 0.480D+00 0.459D+00
 Coeff:      0.174D-01 0.441D-01 0.480D+00 0.459D+00
 Gap=     0.214 Goal=   None    Shift=    0.000
 RMSDP=3.21D-07 MaxDP=9.84D-06 DE=-1.83D-09 OVMax= 1.93D-05

 Cycle   9  Pass 1  IDiag  1:
 RMSU=  1.14D-07    CP:  1.00D+00  7.14D-01  8.99D-01  5.41D-01
 E= -420.810422700054     Delta-E=       -0.000000002466 Rises=F Damp=F
 DIIS: error= 5.79D-07 at cycle   5 NSaved=   5.
 NSaved= 5 IEnMin= 5 EnMin= -420.810422700054     IErMin= 5 ErrMin= 5.79D-07
 ErrMax= 5.79D-07  0.00D+00 EMaxC= 1.00D-01 BMatC= 4.91D-11 BMatP= 3.07D-09
 IDIUse=1 WtCom= 1.00D+00 WtEn= 0.00D+00
 Coeff-Com: -0.215D-03 0.144D-01 0.217D+00 0.220D+00 0.548D+00
 Coeff:     -0.215D-03 0.144D-01 0.217D+00 0.220D+00 0.548D+00
 Gap=     0.214 Goal=   None    Shift=    0.000
 RMSDP=6.85D-08 MaxDP=1.61D-06 DE=-2.47D-09 OVMax= 3.98D-06

 Cycle  10  Pass 1  IDiag  1:
 RMSU=  4.83D-08    CP:  1.00D+00  7.12D-01  9.05D-01  5.36D-01  6.11D-01
 E= -420.810422700095     Delta-E=       -0.000000000041 Rises=F Damp=F
 DIIS: error= 3.16D-07 at cycle   6 NSaved=   6.
 NSaved= 6 IEnMin= 6 EnMin= -420.810422700095     IErMin= 6 ErrMin= 3.16D-07
 ErrMax= 3.16D-07  0.00D+00 EMaxC= 1.00D-01 BMatC= 1.27D-11 BMatP= 4.91D-11
 IDIUse=1 WtCom= 1.00D+00 WtEn= 0.00D+00
 Coeff-Com: -0.230D-02 0.335D-02 0.758D-01 0.774D-01 0.358D+00 0.488D+00
 Coeff:     -0.230D-02 0.335D-02 0.758D-01 0.774D-01 0.358D+00 0.488D+00
 Gap=     0.214 Goal=   None    Shift=    0.000
 RMSDP=2.51D-08 MaxDP=5.80D-07 DE=-4.12D-11 OVMax= 1.29D-06

 Cycle  11  Pass 1  IDiag  1:
 RMSU=  1.27D-08    CP:  1.00D+00  7.13D-01  9.05D-01  5.35D-01  7.05D-01
                    CP:  6.19D-01
 E= -420.810422700100     Delta-E=       -0.000000000005 Rises=F Damp=F
 DIIS: error= 3.18D-08 at cycle   7 NSaved=   7.
 NSaved= 7 IEnMin= 7 EnMin= -420.810422700100     IErMin= 7 ErrMin= 3.18D-08
 ErrMax= 3.18D-08  0.00D+00 EMaxC= 1.00D-01 BMatC= 1.80D-13 BMatP= 1.27D-11
 IDIUse=1 WtCom= 1.00D+00 WtEn= 0.00D+00
 Coeff-Com: -0.729D-03 0.292D-03 0.133D-01 0.131D-01 0.873D-01 0.158D+00
 Coeff-Com:  0.729D+00
 Coeff:     -0.729D-03 0.292D-03 0.133D-01 0.131D-01 0.873D-01 0.158D+00
 Coeff:      0.729D+00
 Gap=     0.214 Goal=   None    Shift=    0.000
 RMSDP=4.99D-09 MaxDP=1.23D-07 DE=-4.89D-12 OVMax= 2.88D-07

 SCF Done:  E(RB3LYP) =  -420.810422700     A.U. after   11 cycles
            NFock= 11  Conv=0.50D-08     -V/T= 2.0093
 KE= 4.169247377380D+02 PE=-1.788546614676D+03 EE= 5.468189075041D+02
 Leave Link  502 at Mon Sep 21 10:06:33 2026, MaxMem=  3758096384 cpu:              34.7 elap:               4.4
 (Enter /opt/software/gaussian/16RevA.03/g16/l701.exe)
 ... and contract with generalized density number  0.
 Compute integral first derivatives.
 Leave Link  701 at Mon Sep 21 10:06:34 2026, MaxMem=  3758096384 cpu:               0.6 elap:               0.1
 (Enter /opt/software/gaussian/16RevA.03/g16/l702.exe)
 L702 exits ... SP integral derivatives will be done elsewhere.
 Leave Link  702 at Mon Sep 21 10:06:34 2026, MaxMem=  3758096384 cpu:               0.1 elap:               0.0
 (Enter /opt/software/gaussian/16RevA.03/g16/l703.exe)
 Integral derivatives from FoFJK, PRISM(SPDF).
 Compute integral first derivatives, UseDBF=F ICtDFT=           0.
 Calling FoFJK, ICntrl=      2127 FMM=F ISym2X=0 I1Cent= 0 IOpClX= 0 NMat=1 NMatS=1 NMatT=0.
 FoFJK:  IHMeth= 1 ICntrl=    2127 DoSepK=F KAlg= 0 I1Cent=           0 FoldK=F
 IRaf=         0 NMat=       1 IRICut=       1 DoRegI=T DoRafI=F ISym2E= 0 IDoP0=0 IntGTp=1.
 FoFCou: FMM=F IPFlag=           0 FMFlag=      100000 FMFlg1=         800
         NFxFlg=           0 DoJE=F BraDBF=F KetDBF=F FulRan=T
         wScrn=  0.000000 ICntrl=      2127 IOpCl=  0 I1Cent=           0 NGrid=           0
         NMat0=    1 NMatS0=      1 NMatT0=    0 NMatD0=    1 NMtDS0=    0 NMtDT0=    0
 Symmetry not used in FoFCou.
 Leave Link  703 at Mon Sep 21 10:06:35 2026, MaxMem=  3758096384 cpu:               9.4 elap:               1.2
 (Enter /opt/software/gaussian/16RevA.03/g16/l716.exe)
 Dipole        =-1.59293421D+00 9.53022510D-01 2.91698157D-01
 ***** Axes restored to original set *****
 -------------------------------------------------------------------
 Center     Atomic                   Forces (Hartrees/Bohr)
 Number     Number              X              Y              Z
 -------------------------------------------------------------------
      1        6          -0.001208270   -0.000382796   -0.000052009
      2        6           0.000456871    0.000192649   -0.000015167
      3        6          -0.000219234   -0.000030901   -0.000078904
      4        1          -0.000054060   -0.000106310   -0.000003662
      5        6           0.002127504    0.000883965   -0.000073039
      6        6           0.000344317    0.000414931    0.000016728
      7        1           0.000319940    0.000428027   -0.000002216
      8        6          -0.007974198    0.000285395    0.000836848
      9        6           0.000420172    0.000196932    0.000072460
     10        1          -0.000064282   -0.000059292   -0.000000603
     11        1           0.000017444    0.000011075    0.000015175
     12        1          -0.000289683    0.000112717    0.000269489
     13        8           0.001650626   -0.001785146    0.000102189
     14        1          -0.000168271   -0.000195669   -0.000246364
     15        8           0.004641124    0.000034424   -0.000840923
 -------------------------------------------------------------------
 Cartesian Forces:  Max     0.007974198 RMS     0.001497252
 Leave Link  716 at Mon Sep 21 10:06:35 2026, MaxMem=  3758096384 cpu:               0.2 elap:               0.0
 (Enter /opt/software/gaussian/16RevA.03/g16/l103.exe)

 GradGradGradGradGradGradGradGradGradGradGradGradGradGradGradGradGradGrad
 Berny optimization.
 Using GEDIIS/GDIIS optimizer.
 FormGI is forming the generalized inverse of G from B-inverse, IUseBI=4.
 Internal  Forces:  Max     0.004590657 RMS     0.000745047
 Search for a local minimum.
 Step number  14 out of a maximum of   77
 All quantities printed in internal units (Hartrees-Bohrs-Radians)
 RMS Force = .74505D-03 SwitMx=.10000D-02 MixMth= 2
 Mixed Optimization -- En-DIIS/RFO-DIIS
 Update second derivatives using D2CorX and points    2    3    4    5    6
                                                      7   10    9   11    8
                                                     13   14   12
 DE=  2.38D-05 DEPred=-3.17D-05 R=-7.51D-01
 Trust test=-7.51D-01 RLast= 3.50D-02 DXMaxT set to 5.00D-02
 ITU= -1 -1  0  0 -1 -1  0  1  1  1 -1  1  1  0
 Use linear search instead of GDIIS.
 Energy rises -- skip Quadratic/GDIIS search.
 Quartic linear search produced a step of -0.67684.
 Iteration  1 RMS(Cart)=  0.00498945 RMS(Int)=  0.00002294
 Iteration  2 RMS(Cart)=  0.00002663 RMS(Int)=  0.00000089
 Iteration  3 RMS(Cart)=  0.00000000 RMS(Int)=  0.00000089
 ITry= 1 IFail=0 DXMaxC= 2.06D-02 DCOld= 1.00D+10 DXMaxT= 5.00D-02 DXLimC= 3.00D+00 Rises=T
 Variable       Old X    -DE/DX   Delta X   Delta X   Delta X     New X
                                 (Linear)    (Quad)   (Total)
    R1        2.63219  -0.00048  -0.00172   0.00000  -0.00172   2.63047
    R2        2.64719   0.00036   0.00242   0.00000   0.00242   2.64961
    R3        2.04947   0.00021   0.00034   0.00000   0.00034   2.04981
    R4        2.05273   0.00006   0.00006   0.00000   0.00006   2.05279
    R5        2.64099  -0.00010   0.00044   0.00000   0.00044   2.64143
    R6        2.63853  -0.00026  -0.00118   0.00000  -0.00118   2.63735
    R7        2.63532  -0.00012   0.00060   0.00000   0.00060   2.63592
    R8        2.05269   0.00002   0.00000   0.00000   0.00000   2.05269
    R9        2.84496  -0.00229  -0.00500   0.00000  -0.00500   2.83996
   R10        2.65096  -0.00034  -0.00103   0.00000  -0.00103   2.64992
   R11        2.05323  -0.00002   0.00002   0.00000   0.00002   2.05325
   R12        2.28731  -0.00229  -0.00210   0.00000  -0.00210   2.28520
   R13        2.55754   0.00459   0.00875   0.00000   0.00875   2.56629
   R14        2.05766  -0.00028  -0.00036   0.00000  -0.00036   2.05730
   R15        1.83360   0.00020  -0.00013   0.00000  -0.00013   1.83347
    A1        2.10177  -0.00036   0.00059   0.00000   0.00059   2.10237
    A2        2.11226   0.00068   0.00284   0.00000   0.00284   2.11511
    A3        2.06914  -0.00033  -0.00344   0.00000  -0.00344   2.06571
    A4        2.08982   0.00014   0.00127   0.00000   0.00127   2.09109
    A5        2.09648  -0.00006  -0.00062   0.00000  -0.00062   2.09585
    A6        2.09688  -0.00008  -0.00064   0.00000  -0.00064   2.09624
    A7        2.09437  -0.00011   0.00027   0.00000   0.00027   2.09464
    A8        2.09900  -0.00003   0.00001   0.00000   0.00001   2.09901
    A9        2.08980   0.00014  -0.00028   0.00000  -0.00028   2.08952
   A10        2.04937  -0.00038  -0.00489   0.00000  -0.00489   2.04447
   A11        2.07932   0.00045  -0.00054   0.00000  -0.00054   2.07878
   A12        2.15434  -0.00007   0.00545   0.00000   0.00545   2.15978
   A13        2.09200   0.00035   0.00052   0.00000   0.00052   2.09252
   A14        2.09688  -0.00017  -0.00042   0.00000  -0.00042   2.09646
   A15        2.09428  -0.00019  -0.00010   0.00000  -0.00010   2.09419
   A16        2.14343   0.00101   0.00254   0.00000   0.00254   2.14597
   A17        2.04889  -0.00108  -0.00014   0.00000  -0.00013   2.04876
   A18        2.09080   0.00007  -0.00237   0.00000  -0.00236   2.08844
   A19        2.10225  -0.00027  -0.00021   0.00000  -0.00021   2.10205
   A20        2.06700   0.00024  -0.00367   0.00000  -0.00367   2.06333
   A21        2.11332   0.00003   0.00384   0.00000   0.00384   2.11716
   A22        1.93024  -0.00034   0.00120   0.00000   0.00120   1.93145
    D1       -3.13244   0.00001  -0.00081   0.00000  -0.00081  -3.13325
    D2        0.01211   0.00002  -0.00074   0.00000  -0.00074   0.01137
    D3        0.00717  -0.00000  -0.00019   0.00000  -0.00019   0.00698
    D4       -3.13147   0.00000  -0.00012   0.00000  -0.00012  -3.13159
    D5        3.13982   0.00001  -0.00011   0.00000  -0.00011   3.13971
    D6       -0.02027  -0.00006   0.00075   0.00000   0.00075  -0.01953
    D7        0.00017   0.00002  -0.00072   0.00000  -0.00072  -0.00055
    D8        3.12326  -0.00004   0.00014   0.00000   0.00014   3.12339
    D9        0.00349   0.00001   0.00024   0.00000   0.00024   0.00373
   D10        3.13836  -0.00002   0.00029   0.00000   0.00029   3.13865
   D11       -3.13513   0.00001   0.00031   0.00000   0.00031  -3.13482
   D12       -0.00026  -0.00001   0.00035   0.00000   0.00035   0.00009
   D13       -0.01066  -0.00001   0.00025   0.00000   0.00025  -0.01042
   D14        3.13764   0.00002   0.00020   0.00000   0.00020   3.13784
   D15        3.12437  -0.00005   0.00030   0.00000   0.00030   3.12468
   D16       -0.01051  -0.00002   0.00026   0.00000   0.00026  -0.01025
   D17        0.00231  -0.00003  -0.00025   0.00000  -0.00025   0.00207
   D18        3.10682  -0.00014  -0.00138   0.00000  -0.00138   3.10544
   D19       -3.13276   0.00001  -0.00031   0.00000  -0.00030  -3.13306
   D20       -0.02825  -0.00009  -0.00144   0.00000  -0.00144  -0.02969
   D21        0.27088   0.00059  -0.00055   0.00000  -0.00055   0.27034
   D22       -2.85885  -0.00002  -0.00624   0.00000  -0.00624  -2.86509
   D23       -2.85134   0.00065  -0.00137   0.00000  -0.00137  -2.85272
   D24        0.30211   0.00004  -0.00706   0.00000  -0.00706   0.29504
   D25        0.01307   0.00006  -0.00026   0.00000  -0.00026   0.01280
   D26       -3.09044   0.00017   0.00107   0.00000   0.00107  -3.08937
   D27        3.13498  -0.00001   0.00053   0.00000   0.00053   3.13551
   D28        0.03147   0.00010   0.00187   0.00000   0.00187   0.03334
   D29        0.14069   0.00050  -0.00735   0.00000  -0.00735   0.13334
   D30       -2.98942  -0.00010  -0.01288   0.00000  -0.01288  -3.00229
         Item               Value     Threshold  Converged?
 Maximum Force            0.004591     0.000450     NO 
 RMS     Force            0.000745     0.000300     NO 
 Maximum Displacement     0.020565     0.001800     NO 
 RMS     Displacement     0.004997     0.001200     NO 
 Predicted change in Energy=-7.131972D-06
 GradGradGradGradGradGradGradGradGradGradGradGradGradGradGradGradGradGrad

 Leave Link  103 at Mon Sep 21 10:06:35 2026, MaxMem=  3758096384 cpu:               0.6 elap:               0.1
 (Enter /opt/software/gaussian/16RevA.03/g16/l202.exe)
                          Input orientation:                          
 ---------------------------------------------------------------------
 Center     Atomic      Atomic             Coordinates (Angstroms)
 Number     Number       Type             X           Y           Z
 ---------------------------------------------------------------------
      1          6           0       -0.842565    2.008238    0.001506
      2          6           0       -1.511519    0.788270    0.043921
      3          6           0        0.607528   -0.376005    0.054122
      4          1           0       -2.597485    0.768165    0.061038
      5          6           0        0.558557    2.049743   -0.031076
      6          6           0       -0.787676   -0.407251    0.068079
      7          1           0       -1.386157    2.946859   -0.008486
      8          6           0        1.203291    3.406430   -0.078519
      9          6           0        1.277587    0.846338    0.003544
     10          1           0        1.176204   -1.300846    0.088604
     11          1           0       -1.309220   -1.359752    0.103951
     12          1           0        2.365944    0.838211    0.028537
     13          8           0        0.608589    4.426822    0.181258
     14          1           0        2.823046    2.595054   -0.736951
     15          8           0        2.511386    3.464131   -0.438760
 ---------------------------------------------------------------------
                    Distance matrix (angstroms):
                    1          2          3          4          5
     1  C    0.000000
     2  C    1.391984   0.000000
     3  C    2.791084   2.417851   0.000000
     4  H    2.149668   1.086287   3.403128   0.000000
     5  C    1.402115   2.425315   2.427738   3.407570   0.000000
     6  C    2.417029   1.397785   1.395624   2.158022   2.803390
     7  H    1.084713   2.162861   3.875581   2.493764   2.141784
     8  C    2.479288   3.773585   3.831363   4.628803   1.502841
     9  C    2.417656   2.790003   1.394870   3.876288   1.402279
    10  H    3.877247   3.404447   1.086237   4.303754   3.409143
    11  H    3.401708   2.158362   2.155032   2.487870   3.889921
    12  H    3.415292   3.877815   2.137055   4.964030   2.176697
    13  O    2.826254   4.213405   4.804510   4.866122   2.387068
    14  H    3.785019   4.760534   3.789658   5.775506   2.433831
    15  O    3.682723   4.855613   4.314425   5.798155   2.445453
                    6          7          8          9         10
     6  C    0.000000
     7  H    3.407946   0.000000
     8  C    4.304602   2.630846   0.000000
     9  C    2.416809   3.392325   2.562483   0.000000
    10  H    2.157721   4.961665   4.710319   2.151259   0.000000
    11  H    1.086533   4.308766   5.390964   3.401248   2.486170
    12  H    3.390879   4.304187   2.821164   1.088674   2.448399
    13  O    5.032954   2.491045   1.209278   3.646780   5.756470
    14  H    4.764370   4.286235   1.927555   2.448424   4.309486
    15  O    5.111585   3.955193   1.358020   2.927581   4.976528
                   11         12         13         14         15
    11  H    0.000000
    12  H    4.282939   0.000000
    13  O    6.096590   3.998718   0.000000
    14  H    5.781283   1.970130   3.017001   0.000000
    15  O    6.177493   2.671137   2.220773   0.970229   0.000000
 Stoichiometry    C7H6O2
 Framework group  C1[X(C7H6O2)]
 Deg. of freedom    39
 Full point group                 C1      NOp   1
 RotChk:  IX=0 Diff= 1.25D-03
 Largest Abelian subgroup         C1      NOp   1
 Largest concise Abelian subgroup C1      NOp   1
                         Standard orientation:                         
 ---------------------------------------------------------------------
 Center     Atomic      Atomic             Coordinates (Angstroms)
 Number     Number       Type             X           Y           Z
 ---------------------------------------------------------------------
      1          6           0       -0.487592   -1.211102    0.087942
      2          6           0       -1.879302   -1.193311    0.109081
      3          6           0       -1.854066    1.215173   -0.102035
      4          1           0       -2.430054   -2.125679    0.194998
      5          6           0        0.237029   -0.014954   -0.012458
      6          6           0       -2.565987    0.020635    0.016346
      7          1           0        0.063231   -2.143525    0.149474
      8          6           0        1.736084   -0.120651   -0.026287
      9          6           0       -0.459365    1.197843   -0.115152
     10          1           0       -2.381738    2.160518   -0.190323
     11          1           0       -3.652339    0.034947    0.030035
     12          1           0        0.066024    2.142711   -0.243218
     13          8           0        2.320428   -1.159893   -0.228461
     14          1           0        1.854837    1.736633    0.475572
     15          8           0        2.444476    1.013968    0.208316
 ---------------------------------------------------------------------
 Rotational constants (GHZ):           3.8368569           1.2110831           0.9287795
 Leave Link  202 at Mon Sep 21 10:06:35 2026, MaxMem=  3758096384 cpu:               0.3 elap:               0.1
 (Enter /opt/software/gaussian/16RevA.03/g16/l301.exe)
 Standard basis: 6-31G(d) (6D, 7F)
 Ernie: Thresh=  0.10000D-02 Tol=  0.10000D-05 Strict=F.
 There are   147 symmetry adapted cartesian basis functions of A   symmetry.
 There are   147 symmetry adapted basis functions of A   symmetry.
   147 basis functions,   276 primitive gaussians,   147 cartesian basis functions
    32 alpha electrons       32 beta electrons
       nuclear repulsion energy       403.9823100669 Hartrees.
 IExCor=  402 DFT=T Ex+Corr=B3LYP ExCW=0 ScaHFX=  0.200000
 ScaDFX=  0.800000  0.720000  1.000000  0.810000 ScalE2=  1.000000  1.000000
 IRadAn=      5 IRanWt=     -1 IRanGd=            0 ICorTp=0 IEmpDi=  4
 NAtoms=   15 NActive=   15 NUniq=   15 SFac= 1.00D+00 NAtFMM=   60 NAOKFM=F Big=F
 Integral buffers will be    131072 words long.
 Raffenetti 2 integral format.
 Two-electron integral symmetry is turned on.
 Leave Link  301 at Mon Sep 21 10:06:35 2026, MaxMem=  3758096384 cpu:               0.5 elap:               0.1
 (Enter /opt/software/gaussian/16RevA.03/g16/l302.exe)
 NPDir=0 NMtPBC=     1 NCelOv=     1 NCel=       1 NClECP=     1 NCelD=      1
         NCelK=      1 NCelE2=     1 NClLst=     1 CellRange=     0.0.
 One-electron integrals computed using PRISM.
 One-electron integral symmetry used in STVInt
 NBasis=   147 RedAO= T EigKep=  4.72D-04  NBF=   147
 NBsUse=   147 1.00D-06 EigRej= -1.00D+00 NBFU=   147
 Precomputing XC quadrature grid using
 IXCGrd= 4 IRadAn=           5 IRanWt=          -1 IRanGd=           0 AccXCQ= 0.00D+00.
 Generated NRdTot=       0 NPtTot=           0 NUsed=           0 NTot=          32
 NSgBfM=   147   147   147   147   147 MxSgAt=    15 MxSgA2=    15.
 Leave Link  302 at Mon Sep 21 10:06:35 2026, MaxMem=  3758096384 cpu:               1.0 elap:               0.1
 (Enter /opt/software/gaussian/16RevA.03/g16/l303.exe)
 DipDrv:  MaxL=1.
 Leave Link  303 at Mon Sep 21 10:06:36 2026, MaxMem=  3758096384 cpu:               0.2 elap:               0.0
 (Enter /opt/software/gaussian/16RevA.03/g16/l401.exe)
 Lowest energy guess from the checkpoint file:  "job.chk"
 B after Tr=    -0.000000   -0.000000   -0.000000
         Rot=    1.000000   -0.000035    0.000052   -0.000025 Ang=  -0.01 deg.
 Guess basis will be translated and rotated to current coordinates.
 B after Tr=    -0.000000    0.000000    0.000000
         Rot=    1.000000    0.000077   -0.000110    0.000051 Ang=   0.02 deg.
 Guess basis will be translated and rotated to current coordinates.
 CkInt1:  FT= 3.23D-01
 Max alpha theta=  0.319 degrees.
 JPrj=2 DoOrth=T DoCkMO=T.
 Leave Link  401 at Mon Sep 21 10:06:36 2026, MaxMem=  3758096384 cpu:               1.2 elap:               0.2
 (Enter /opt/software/gaussian/16RevA.03/g16/l502.exe)
 Integral symmetry usage will be decided dynamically.
 Closed shell SCF:
 Using DIIS extrapolation, IDIIS=  1040.
 NGot=  3758096384 LenX=  3758050306 LenY=  3758028256
 Requested convergence on RMS density matrix=1.00D-08 within 128 cycles.
 Requested convergence on MAX density matrix=1.00D-06.
 Requested convergence on             energy=1.00D-06.
 No special actions if energy rises.
 Fock matrices will be formed incrementally for  20 cycles.
 Integral accuracy reduced to 1.0D-05 until final iterations.

 Cycle   1  Pass 0  IDiag  1:
 FoFJK:  IHMeth= 1 ICntrl=       0 DoSepK=F KAlg= 0 I1Cent=           0 FoldK=F
 IRaf= 940000000 NMat=       1 IRICut=       1 DoRegI=T DoRafI=F ISym2E= 0 IDoP0=0 IntGTp=1.
 FoFCou: FMM=F IPFlag=           0 FMFlag=      100000 FMFlg1=           0
         NFxFlg=           0 DoJE=F BraDBF=F KetDBF=F FulRan=T
         wScrn=  0.000000 ICntrl=         0 IOpCl=  0 I1Cent=           0 NGrid=           0
         NMat0=    1 NMatS0=      1 NMatT0=    0 NMatD0=    1 NMtDS0=    0 NMtDT0=    0
 Symmetry not used in FoFCou.
 E= -420.810457903182    
 DIIS: error= 7.93D-06 at cycle   1 NSaved=   1.
 NSaved= 1 IEnMin= 1 EnMin= -420.810457903182     IErMin= 1 ErrMin= 7.93D-06
 ErrMax= 7.93D-06  0.00D+00 EMaxC= 1.00D-01 BMatC= 1.48D-08 BMatP= 1.48D-08
 IDIUse=1 WtCom= 1.00D+00 WtEn= 0.00D+00
 Coeff-Com:  0.100D+01
 Coeff:      0.100D+01
 Gap=    10.660 Goal=   None    Shift=    0.000
 RMSDP=4.94D-06 MaxDP=7.50D-05              OVMax= 1.52D-05

 Initial convergence to 1.0D-05 achieved.  Increase integral accuracy.
 Cycle   2  Pass 1  IDiag  1:
 E= -420.810453457912     Delta-E=        0.000004445270 Rises=F Damp=F
 DIIS: error= 7.90D-06 at cycle   1 NSaved=   1.
 NSaved= 1 IEnMin= 1 EnMin= -420.810453457912     IErMin= 1 ErrMin= 7.90D-06
 ErrMax= 7.90D-06  0.00D+00 EMaxC= 1.00D-01 BMatC= 1.46D-08 BMatP= 1.46D-08
 IDIUse=1 WtCom= 1.00D+00 WtEn= 0.00D+00
 Coeff-Com:  0.100D+01
 Coeff:      0.100D+01
 Gap=     0.214 Goal=   None    Shift=    0.000
 RMSDP=4.94D-06 MaxDP=7.50D-05 DE= 4.45D-06 OVMax= 1.85D-05

 Cycle   3  Pass 1  IDiag  1:
 RMSU=  4.83D-06    CP:  1.00D+00
 E= -420.810453466059     Delta-E=       -0.000000008147 Rises=F Damp=F
 DIIS: error= 3.09D-06 at cycle   2 NSaved=   2.
 NSaved= 2 IEnMin= 2 EnMin= -420.810453466059     IErMin= 2 ErrMin= 3.09D-06
 ErrMax= 3.09D-06  0.00D+00 EMaxC= 1.00D-01 BMatC= 2.47D-09 BMatP= 1.46D-08
 IDIUse=1 WtCom= 1.00D+00 WtEn= 0.00D+00
 Coeff-Com:  0.191D+00 0.809D+00
 Coeff:      0.191D+00 0.809D+00
 Gap=     0.214 Goal=   None    Shift=    0.000
 RMSDP=5.66D-07 MaxDP=2.44D-05 DE=-8.15D-09 OVMax= 2.67D-05

 Cycle   4  Pass 1  IDiag  1:
 RMSU=  5.65D-07    CP:  1.00D+00  1.00D+00
 E= -420.810453465280     Delta-E=        0.000000000779 Rises=F Damp=F
 DIIS: error= 3.48D-06 at cycle   3 NSaved=   3.
 NSaved= 3 IEnMin= 2 EnMin= -420.810453466059     IErMin= 2 ErrMin= 3.09D-06
 ErrMax= 3.48D-06  0.00D+00 EMaxC= 1.00D-01 BMatC= 3.53D-09 BMatP= 2.47D-09
 IDIUse=1 WtCom= 1.00D+00 WtEn= 0.00D+00
 Coeff-Com: -0.407D-02 0.546D+00 0.458D+00
 Coeff:     -0.407D-02 0.546D+00 0.458D+00
 Gap=     0.214 Goal=   None    Shift=    0.000
 RMSDP=3.27D-07 MaxDP=1.35D-05 DE= 7.79D-10 OVMax= 1.83D-05

 Cycle   5  Pass 1  IDiag  1:
 RMSU=  1.02D-07    CP:  1.00D+00  1.01D+00  4.57D-01
 E= -420.810453467784     Delta-E=       -0.000000002504 Rises=F Damp=F
 DIIS: error= 7.97D-07 at cycle   4 NSaved=   4.
 NSaved= 4 IEnMin= 4 EnMin= -420.810453467784     IErMin= 4 ErrMin= 7.97D-07
 ErrMax= 7.97D-07  0.00D+00 EMaxC= 1.00D-01 BMatC= 7.84D-11 BMatP= 2.47D-09
 IDIUse=1 WtCom= 1.00D+00 WtEn= 0.00D+00
 Coeff-Com: -0.503D-02 0.343D+00 0.299D+00 0.362D+00
 Coeff:     -0.503D-02 0.343D+00 0.299D+00 0.362D+00
 Gap=     0.214 Goal=   None    Shift=    0.000
 RMSDP=6.09D-08 MaxDP=2.33D-06 DE=-2.50D-09 OVMax= 2.96D-06

 Cycle   6  Pass 1  IDiag  1:
 RMSU=  2.83D-08    CP:  1.00D+00  1.01D+00  4.71D-01  4.79D-01
 E= -420.810453467845     Delta-E=       -0.000000000061 Rises=F Damp=F
 DIIS: error= 1.15D-07 at cycle   5 NSaved=   5.
 NSaved= 5 IEnMin= 5 EnMin= -420.810453467845     IErMin= 5 ErrMin= 1.15D-07
 ErrMax= 1.15D-07  0.00D+00 EMaxC= 1.00D-01 BMatC= 1.77D-12 BMatP= 7.84D-11
 IDIUse=1 WtCom= 1.00D+00 WtEn= 0.00D+00
 Coeff-Com: -0.217D-02 0.120D+00 0.106D+00 0.174D+00 0.602D+00
 Coeff:     -0.217D-02 0.120D+00 0.106D+00 0.174D+00 0.602D+00
 Gap=     0.214 Goal=   None    Shift=    0.000
 RMSDP=1.08D-08 MaxDP=2.87D-07 DE=-6.14D-11 OVMax= 3.83D-07

 Cycle   7  Pass 1  IDiag  1:
 RMSU=  9.33D-09    CP:  1.00D+00  1.01D+00  4.71D-01  4.85D-01  8.13D-01
 E= -420.810453467844     Delta-E=        0.000000000001 Rises=F Damp=F
 DIIS: error= 3.65D-08 at cycle   6 NSaved=   6.
 NSaved= 6 IEnMin= 5 EnMin= -420.810453467845     IErMin= 6 ErrMin= 3.65D-08
 ErrMax= 3.65D-08  0.00D+00 EMaxC= 1.00D-01 BMatC= 2.81D-13 BMatP= 1.77D-12
 IDIUse=1 WtCom= 1.00D+00 WtEn= 0.00D+00
 Coeff-Com: -0.561D-03 0.252D-01 0.228D-01 0.493D-01 0.327D+00 0.576D+00
 Coeff:     -0.561D-03 0.252D-01 0.228D-01 0.493D-01 0.327D+00 0.576D+00
 Gap=     0.214 Goal=   None    Shift=    0.000
 RMSDP=5.08D-09 MaxDP=1.41D-07 DE= 1.14D-12 OVMax= 2.64D-07

 SCF Done:  E(RB3LYP) =  -420.810453468     A.U. after    7 cycles
            NFock=  7  Conv=0.51D-08     -V/T= 2.0093
 KE= 4.169243652906D+02 PE=-1.788529061435D+03 EE= 5.468119326095D+02
 Leave Link  502 at Mon Sep 21 10:06:39 2026, MaxMem=  3758096384 cpu:              25.4 elap:               3.2
 (Enter /opt/software/gaussian/16RevA.03/g16/l701.exe)
 ... and contract with generalized density number  0.
 Compute integral first derivatives.
 Leave Link  701 at Mon Sep 21 10:06:39 2026, MaxMem=  3758096384 cpu:               0.6 elap:               0.1
 (Enter /opt/software/gaussian/16RevA.03/g16/l702.exe)
 L702 exits ... SP integral derivatives will be done elsewhere.
 Leave Link  702 at Mon Sep 21 10:06:39 2026, MaxMem=  3758096384 cpu:               0.1 elap:               0.0
 (Enter /opt/software/gaussian/16RevA.03/g16/l703.exe)
 Integral derivatives from FoFJK, PRISM(SPDF).
 Compute integral first derivatives, UseDBF=F ICtDFT=           0.
 Calling FoFJK, ICntrl=      2127 FMM=F ISym2X=0 I1Cent= 0 IOpClX= 0 NMat=1 NMatS=1 NMatT=0.
 FoFJK:  IHMeth= 1 ICntrl=    2127 DoSepK=F KAlg= 0 I1Cent=           0 FoldK=F
 IRaf=         0 NMat=       1 IRICut=       1 DoRegI=T DoRafI=F ISym2E= 0 IDoP0=0 IntGTp=1.
 FoFCou: FMM=F IPFlag=           0 FMFlag=      100000 FMFlg1=         800
         NFxFlg=           0 DoJE=F BraDBF=F KetDBF=F FulRan=T
         wScrn=  0.000000 ICntrl=      2127 IOpCl=  0 I1Cent=           0 NGrid=           0
         NMat0=    1 NMatS0=      1 NMatT0=    0 NMatD0=    1 NMtDS0=    0 NMtDT0=    0
 Symmetry not used in FoFCou.
 Leave Link  703 at Mon Sep 21 10:06:40 2026, MaxMem=  3758096384 cpu:               9.4 elap:               1.2
 (Enter /opt/software/gaussian/16RevA.03/g16/l716.exe)
 Dipole        =-1.59741823D+00 9.50469269D-01 2.82511229D-01
 ***** Axes restored to original set *****
 -------------------------------------------------------------------
 Center     Atomic                   Forces (Hartrees/Bohr)
 Number     Number              X              Y              Z
 -------------------------------------------------------------------
      1        6          -0.000287146    0.000113401   -0.000066813
      2        6           0.000240196   -0.000247861   -0.000000798
      3        6          -0.000017033    0.000122943   -0.000080788
      4        1          -0.000033883   -0.000027188   -0.000017243
      5        6           0.000262938    0.000321859   -0.000236153
      6        6          -0.000060331    0.000287355    0.000004935
      7        1           0.000124869    0.000141161   -0.000001978
      8        6          -0.002880568   -0.000037589    0.000463757
      9        6           0.000608138   -0.000312002    0.000185659
     10        1          -0.000053628   -0.000037840    0.000016198
     11        1           0.000011892    0.000004005    0.000014675
     12        1          -0.000134109    0.000556868    0.000131928
     13        8           0.000808434   -0.000679461    0.000001043
     14        1          -0.000406734   -0.000286843   -0.000345548
     15        8           0.001816967    0.000081192   -0.000068874
 -------------------------------------------------------------------
 Cartesian Forces:  Max     0.002880568 RMS     0.000572608
 Leave Link  716 at Mon Sep 21 10:06:41 2026, MaxMem=  3758096384 cpu:               0.2 elap:               0.0
 (Enter /opt/software/gaussian/16RevA.03/g16/l103.exe)

 GradGradGradGradGradGradGradGradGradGradGradGradGradGradGradGradGradGrad
 Berny optimization.
 Using GEDIIS/GDIIS optimizer.
 FormGI is forming the generalized inverse of G from B-inverse, IUseBI=4.
 Internal  Forces:  Max     0.001459613 RMS     0.000404817
 Search for a local minimum.
 Step number  15 out of a maximum of   77
 All quantities printed in internal units (Hartrees-Bohrs-Radians)
 RMS Force = .40482D-03 SwitMx=.10000D-02 MixMth= 2
 Mixed Optimization -- En-DIIS/RFO-DIIS
 Swapping is turned off.
 Update second derivatives using D2CorX and points    2    3    4    5    6
                                                      7   10    9   11    8
                                                     13   12   14   15
 ITU=  0 -1 -1  0  0 -1 -1  0  1  1  1 -1  1  1  0
     Eigenvalues ---    0.01451   0.01734   0.02099   0.02130   0.02154
     Eigenvalues ---    0.02176   0.02181   0.02186   0.02192   0.02288
     Eigenvalues ---    0.03473   0.06767   0.15269   0.15815   0.16000
     Eigenvalues ---    0.16072   0.16115   0.18460   0.21659   0.22097
     Eigenvalues ---    0.23036   0.23700   0.28653   0.34936   0.35075
     Eigenvalues ---    0.35106   0.35110   0.35512   0.36600   0.40426
     Eigenvalues ---    0.41824   0.42564   0.45941   0.46623   0.46773
     Eigenvalues ---    0.52861   0.53639   0.76192   1.15124
 En-DIIS/RFO-DIIS/Sim-DIIS IScMMF=       -3 using points:    15   14
 RFO step:  Lambda=-1.46562654D-05.
 NNeg= 0 NGDIIS= 2 SimSw=  2.50D-03 Rises=F DC= -3.08D-05 SmlDif=  1.00D-05
 NRisDI= 0 DoIntr=F SqrtH=F CThrHd= 10.0 CDAdj=  3.0
 RMS Error=  0.1039910496D-02 NUsed= 2 OKEnD=T EnDIS=F
 InvSVX:  RCond= 6.29D-04 Info=           0 Equed=N FErr=  1.22D-15 BErr=  5.50D-17
 DidBck=T Rises=F RFO-DIIS coefs:    0.75126    0.24874
 Iteration  1 RMS(Cart)=  0.00201322 RMS(Int)=  0.00000422
 Iteration  2 RMS(Cart)=  0.00000436 RMS(Int)=  0.00000037
 Iteration  3 RMS(Cart)=  0.00000000 RMS(Int)=  0.00000037
 ITry= 1 IFail=0 DXMaxC= 8.90D-03 DCOld= 1.00D+10 DXMaxT= 5.00D-02 DXLimC= 3.00D+00 Rises=F
 Variable       Old X    -DE/DX   Delta X   Delta X   Delta X     New X
                                 (Linear)    (Quad)   (Total)
    R1        2.63047   0.00000   0.00043  -0.00034   0.00009   2.63056
    R2        2.64961  -0.00008  -0.00060   0.00038  -0.00022   2.64940
    R3        2.04981   0.00006  -0.00008   0.00015   0.00007   2.04988
    R4        2.05279   0.00003  -0.00001   0.00005   0.00003   2.05282
    R5        2.64143  -0.00010  -0.00011  -0.00002  -0.00013   2.64130
    R6        2.63735   0.00008   0.00029  -0.00019   0.00011   2.63745
    R7        2.63592  -0.00014  -0.00015  -0.00004  -0.00019   2.63573
    R8        2.05269   0.00000  -0.00000   0.00000   0.00000   2.05270
    R9        2.83996  -0.00112   0.00124  -0.00199  -0.00074   2.83921
   R10        2.64992  -0.00024   0.00026  -0.00008   0.00018   2.65010
   R11        2.05325  -0.00001  -0.00000  -0.00001  -0.00001   2.05324
   R12        2.28520  -0.00097   0.00052  -0.00072  -0.00020   2.28500
   R13        2.56629   0.00146  -0.00218   0.00364   0.00146   2.56774
   R14        2.05730  -0.00014   0.00009  -0.00029  -0.00020   2.05709
   R15        1.83347   0.00023   0.00003   0.00015   0.00018   1.83365
    A1        2.10237  -0.00038  -0.00015  -0.00050  -0.00065   2.10172
    A2        2.11511   0.00037  -0.00071   0.00140   0.00069   2.11580
    A3        2.06571   0.00001   0.00085  -0.00090  -0.00005   2.06566
    A4        2.09109   0.00003  -0.00032   0.00032   0.00001   2.09110
    A5        2.09585  -0.00000   0.00016  -0.00008   0.00007   2.09593
    A6        2.09624  -0.00002   0.00016  -0.00024  -0.00008   2.09616
    A7        2.09464  -0.00011  -0.00007  -0.00019  -0.00026   2.09438
    A8        2.09901  -0.00001  -0.00000  -0.00012  -0.00012   2.09889
    A9        2.08952   0.00013   0.00007   0.00031   0.00038   2.08990
   A10        2.04447   0.00059   0.00122  -0.00072   0.00049   2.04497
   A11        2.07878   0.00052   0.00013   0.00064   0.00078   2.07956
   A12        2.15978  -0.00110  -0.00135   0.00008  -0.00128   2.15851
   A13        2.09252   0.00019  -0.00013   0.00052   0.00039   2.09290
   A14        2.09646  -0.00009   0.00011  -0.00026  -0.00015   2.09631
   A15        2.09419  -0.00010   0.00002  -0.00026  -0.00023   2.09395
   A16        2.14597   0.00095  -0.00063   0.00109   0.00045   2.14642
   A17        2.04876  -0.00119   0.00003  -0.00121  -0.00117   2.04759
   A18        2.08844   0.00024   0.00059   0.00012   0.00071   2.08915
   A19        2.10205  -0.00021   0.00005  -0.00038  -0.00033   2.10172
   A20        2.06333   0.00067   0.00091   0.00074   0.00165   2.06498
   A21        2.11716  -0.00046  -0.00095  -0.00035  -0.00131   2.11585
   A22        1.93145  -0.00077  -0.00030  -0.00066  -0.00096   1.93049
    D1       -3.13325   0.00002   0.00020  -0.00022  -0.00002  -3.13327
    D2        0.01137   0.00002   0.00019  -0.00019  -0.00001   0.01136
    D3        0.00698   0.00000   0.00005   0.00005   0.00010   0.00707
    D4       -3.13159   0.00000   0.00003   0.00008   0.00011  -3.13148
    D5        3.13971   0.00001   0.00003   0.00049   0.00051   3.14023
    D6       -0.01953  -0.00005  -0.00019   0.00036   0.00017  -0.01936
    D7       -0.00055   0.00003   0.00018   0.00022   0.00040  -0.00015
    D8        3.12339  -0.00004  -0.00003   0.00009   0.00006   3.12345
    D9        0.00373   0.00000  -0.00006  -0.00007  -0.00013   0.00361
   D10        3.13865  -0.00002  -0.00007  -0.00005  -0.00013   3.13853
   D11       -3.13482   0.00001  -0.00008  -0.00004  -0.00012  -3.13494
   D12        0.00009  -0.00002  -0.00009  -0.00003  -0.00012  -0.00002
   D13       -0.01042  -0.00001  -0.00006   0.00015   0.00009  -0.01033
   D14        3.13784   0.00001  -0.00005   0.00014   0.00009   3.13793
   D15        3.12468  -0.00004  -0.00008   0.00006  -0.00002   3.12466
   D16       -0.01025  -0.00002  -0.00006   0.00005  -0.00002  -0.01027
   D17        0.00207  -0.00002   0.00006   0.00002   0.00008   0.00215
   D18        3.10544  -0.00009   0.00034   0.00015   0.00050   3.10593
   D19       -3.13306   0.00002   0.00008   0.00011   0.00019  -3.13288
   D20       -0.02969  -0.00005   0.00036   0.00024   0.00060  -0.02909
   D21        0.27034   0.00035   0.00014   0.00054   0.00068   0.27102
   D22       -2.86509   0.00016   0.00155   0.00081   0.00237  -2.86272
   D23       -2.85272   0.00040   0.00034   0.00068   0.00102  -2.85170
   D24        0.29504   0.00022   0.00176   0.00095   0.00270   0.29775
   D25        0.01280   0.00005   0.00007  -0.00027  -0.00020   0.01260
   D26       -3.08937   0.00010  -0.00027  -0.00043  -0.00070  -3.09007
   D27        3.13551  -0.00000  -0.00013  -0.00042  -0.00055   3.13496
   D28        0.03334   0.00004  -0.00046  -0.00058  -0.00104   0.03229
   D29        0.13334   0.00041   0.00183   0.00179   0.00362   0.13696
   D30       -3.00229   0.00023   0.00320   0.00204   0.00525  -2.99705
         Item               Value     Threshold  Converged?
 Maximum Force            0.001460     0.000450     NO 
 RMS     Force            0.000405     0.000300     NO 
 Maximum Displacement     0.008895     0.001800     NO 
 RMS     Displacement     0.002013     0.001200     NO 
 Predicted change in Energy=-7.328686D-06
 Lowest energy point so far.  Saving SCF results.
 GradGradGradGradGradGradGradGradGradGradGradGradGradGradGradGradGradGrad

 Leave Link  103 at Mon Sep 21 10:06:41 2026, MaxMem=  3758096384 cpu:               0.7 elap:               0.1
 (Enter /opt/software/gaussian/16RevA.03/g16/l202.exe)
                          Input orientation:                          
 ---------------------------------------------------------------------
 Center     Atomic      Atomic             Coordinates (Angstroms)
 Number     Number       Type             X           Y           Z
 ---------------------------------------------------------------------
      1          6           0       -0.843068    2.008646    0.001230
      2          6           0       -1.511452    0.788296    0.043166
      3          6           0        0.608131   -0.375536    0.054708
      4          1           0       -2.597437    0.767629    0.059528
      5          6           0        0.557967    2.049960   -0.030335
      6          6           0       -0.787137   -0.406851    0.067823
      7          1           0       -1.386500    2.947399   -0.009061
      8          6           0        1.203431    3.405902   -0.076634
      9          6           0        1.277792    0.846929    0.004569
     10          1           0        1.176720   -1.300417    0.089609
     11          1           0       -1.308431   -1.359492    0.103438
     12          1           0        2.366054    0.840910    0.029634
     13          8           0        0.609884    4.426683    0.183761
     14          1           0        2.819732    2.592685   -0.741658
     15          8           0        2.511823    3.461666   -0.439009
 ---------------------------------------------------------------------
                    Distance matrix (angstroms):
                    1          2          3          4          5
     1  C    0.000000
     2  C    1.392031   0.000000
     3  C    2.791624   2.418113   0.000000
     4  H    2.149728   1.086305   3.403310   0.000000
     5  C    1.402000   2.424808   2.427506   3.407202   0.000000
     6  C    2.417062   1.397718   1.395681   2.157929   2.802653
     7  H    1.084749   2.163346   3.876147   2.494488   2.141682
     8  C    2.479223   3.773170   3.830263   4.628783   1.502447
     9  C    2.418191   2.790127   1.394769   3.876430   1.402373
    10  H    3.877790   3.404578   1.086240   4.303718   3.409146
    11  H    3.401671   2.158204   2.154936   2.487591   3.889178
    12  H    3.415096   3.877886   2.137911   4.964122   2.175909
    13  O    2.826887   4.213988   4.803954   4.867342   2.386911
    14  H    3.782736   4.757197   3.786254   5.772214   2.432306
    15  O    3.682442   4.854498   4.311836   5.797493   2.444889
                    6          7          8          9         10
     6  C    0.000000
     7  H    3.408246   0.000000
     8  C    4.303524   2.631071   0.000000
     9  C    2.416588   3.392729   2.561341   0.000000
    10  H    2.157700   4.962235   4.709331   2.151405   0.000000
    11  H    1.086527   4.309068   5.389885   3.400973   2.485891
    12  H    3.391309   4.303540   2.818186   1.088567   2.450182
    13  O    5.032710   2.492190   1.209172   3.645936   5.755854
    14  H    4.760460   4.284263   1.927695   2.445833   4.306592
    15  O    5.109349   3.955534   1.358792   2.925140   4.973870
                   11         12         13         14         15
    11  H    0.000000
    12  H    4.283579   0.000000
    13  O    6.096410   3.995705   0.000000
    14  H    5.777164   1.967087   3.017181   0.000000
    15  O    6.175124   2.666316   2.221818   0.970326   0.000000
 Stoichiometry    C7H6O2
 Framework group  C1[X(C7H6O2)]
 Deg. of freedom    39
 Full point group                 C1      NOp   1
 RotChk:  IX=0 Diff= 5.33D-04
 Largest Abelian subgroup         C1      NOp   1
 Largest concise Abelian subgroup C1      NOp   1
                         Standard orientation:                         
 ---------------------------------------------------------------------
 Center     Atomic      Atomic             Coordinates (Angstroms)
 Number     Number       Type             X           Y           Z
 ---------------------------------------------------------------------
      1          6           0       -0.487678   -1.211850    0.088734
      2          6           0       -1.879422   -1.193068    0.109863
      3          6           0       -1.853073    1.215524   -0.102875
      4          1           0       -2.430842   -2.124999    0.196459
      5          6           0        0.236947   -0.015915   -0.012568
      6          6           0       -2.565312    0.021184    0.016252
      7          1           0        0.063154   -2.144272    0.150811
      8          6           0        1.735644   -0.120995   -0.027133
      9          6           0       -0.458482    1.197485   -0.115958
     10          1           0       -2.380635    2.160872   -0.191831
     11          1           0       -3.651653    0.036011    0.029836
     12          1           0        0.068912    2.141113   -0.244021
     13          8           0        2.320726   -1.159612   -0.229744
     14          1           0        1.851605    1.734777    0.481464
     15          8           0        2.442738    1.014900    0.209669
 ---------------------------------------------------------------------
 Rotational constants (GHZ):           3.8351243           1.2116787           0.9291462
 Leave Link  202 at Mon Sep 21 10:06:41 2026, MaxMem=  3758096384 cpu:               0.3 elap:               0.1
 (Enter /opt/software/gaussian/16RevA.03/g16/l301.exe)
 Standard basis: 6-31G(d) (6D, 7F)
 Ernie: Thresh=  0.10000D-02 Tol=  0.10000D-05 Strict=F.
 There are   147 symmetry adapted cartesian basis functions of A   symmetry.
 There are   147 symmetry adapted basis functions of A   symmetry.
   147 basis functions,   276 primitive gaussians,   147 cartesian basis functions
    32 alpha electrons       32 beta electrons
       nuclear repulsion energy       404.0038342832 Hartrees.
 IExCor=  402 DFT=T Ex+Corr=B3LYP ExCW=0 ScaHFX=  0.200000
 ScaDFX=  0.800000  0.720000  1.000000  0.810000 ScalE2=  1.000000  1.000000
 IRadAn=      5 IRanWt=     -1 IRanGd=            0 ICorTp=0 IEmpDi=  4
 NAtoms=   15 NActive=   15 NUniq=   15 SFac= 1.00D+00 NAtFMM=   60 NAOKFM=F Big=F
 Integral buffers will be    131072 words long.
 Raffenetti 2 integral format.
 Two-electron integral symmetry is turned on.
 Leave Link  301 at Mon Sep 21 10:06:41 2026, MaxMem=  3758096384 cpu:               0.5 elap:               0.1
 (Enter /opt/software/gaussian/16RevA.03/g16/l302.exe)
 NPDir=0 NMtPBC=     1 NCelOv=     1 NCel=       1 NClECP=     1 NCelD=      1
         NCelK=      1 NCelE2=     1 NClLst=     1 CellRange=     0.0.
 One-electron integrals computed using PRISM.
 One-electron integral symmetry used in STVInt
 NBasis=   147 RedAO= T EigKep=  4.72D-04  NBF=   147
 NBsUse=   147 1.00D-06 EigRej= -1.00D+00 NBFU=   147
 Precomputing XC quadrature grid using
 IXCGrd= 4 IRadAn=           5 IRanWt=          -1 IRanGd=           0 AccXCQ= 0.00D+00.
 Generated NRdTot=       0 NPtTot=           0 NUsed=           0 NTot=          32
 NSgBfM=   147   147   147   147   147 MxSgAt=    15 MxSgA2=    15.
 Leave Link  302 at Mon Sep 21 10:06:41 2026, MaxMem=  3758096384 cpu:               1.0 elap:               0.1
 (Enter /opt/software/gaussian/16RevA.03/g16/l303.exe)
 DipDrv:  MaxL=1.
 Leave Link  303 at Mon Sep 21 10:06:41 2026, MaxMem=  3758096384 cpu:               0.2 elap:               0.0
 (Enter /opt/software/gaussian/16RevA.03/g16/l401.exe)
 Initial guess from the checkpoint file:  "job.chk"
 B after Tr=     0.000000   -0.000000    0.000000
         Rot=    1.000000    0.000007    0.000033    0.000012 Ang=   0.00 deg.
 Guess basis will be translated and rotated to current coordinates.
 JPrj=2 DoOrth=T DoCkMO=T.
 Leave Link  401 at Mon Sep 21 10:06:41 2026, MaxMem=  3758096384 cpu:               0.8 elap:               0.1
 (Enter /opt/software/gaussian/16RevA.03/g16/l502.exe)
 Integral symmetry usage will be decided dynamically.
 Closed shell SCF:
 Using DIIS extrapolation, IDIIS=  1040.
 NGot=  3758096384 LenX=  3758050306 LenY=  3758028256
 Requested convergence on RMS density matrix=1.00D-08 within 128 cycles.
 Requested convergence on MAX density matrix=1.00D-06.
 Requested convergence on             energy=1.00D-06.
 No special actions if energy rises.
 Fock matrices will be formed incrementally for  20 cycles.

 Cycle   1  Pass 1  IDiag  1:
 FoFJK:  IHMeth= 1 ICntrl=       0 DoSepK=F KAlg= 0 I1Cent=           0 FoldK=F
 IRaf= 940000000 NMat=       1 IRICut=       1 DoRegI=T DoRafI=F ISym2E= 0 IDoP0=0 IntGTp=1.
 FoFCou: FMM=F IPFlag=           0 FMFlag=      100000 FMFlg1=           0
         NFxFlg=           0 DoJE=F BraDBF=F KetDBF=F FulRan=T
         wScrn=  0.000000 ICntrl=         0 IOpCl=  0 I1Cent=           0 NGrid=           0
         NMat0=    1 NMatS0=      1 NMatT0=    0 NMatD0=    1 NMtDS0=    0 NMtDT0=    0
 Symmetry not used in FoFCou.
 E= -420.810458649809    
 DIIS: error= 1.66D-04 at cycle   1 NSaved=   1.
 NSaved= 1 IEnMin= 1 EnMin= -420.810458649809     IErMin= 1 ErrMin= 1.66D-04
 ErrMax= 1.66D-04  0.00D+00 EMaxC= 1.00D-01 BMatC= 4.36D-06 BMatP= 4.36D-06
 IDIUse=3 WtCom= 9.98D-01 WtEn= 1.66D-03
 Coeff-Com:  0.100D+01
 Coeff-En:   0.100D+01
 Coeff:      0.100D+01
 Gap=     1.912 Goal=   None    Shift=    0.000
 RMSDP=3.06D-05 MaxDP=8.10D-04              OVMax= 9.18D-04

 Cycle   2  Pass 1  IDiag  1:
 RMSU=  3.06D-05    CP:  1.00D+00
 E= -420.810466284959     Delta-E=       -0.000007635150 Rises=F Damp=F
 DIIS: error= 1.81D-05 at cycle   2 NSaved=   2.
 NSaved= 2 IEnMin= 2 EnMin= -420.810466284959     IErMin= 2 ErrMin= 1.81D-05
 ErrMax= 1.81D-05  0.00D+00 EMaxC= 1.00D-01 BMatC= 8.24D-08 BMatP= 4.36D-06
 IDIUse=1 WtCom= 1.00D+00 WtEn= 0.00D+00
 Coeff-Com: -0.418D-01 0.104D+01
 Coeff:     -0.418D-01 0.104D+01
 Gap=     0.214 Goal=   None    Shift=    0.000
 RMSDP=5.19D-06 MaxDP=1.09D-04 DE=-7.64D-06 OVMax= 2.34D-04

 Cycle   3  Pass 1  IDiag  1:
 RMSU=  4.69D-06    CP:  1.00D+00  1.07D+00
 E= -420.810466284950     Delta-E=        0.000000000009 Rises=F Damp=F
 DIIS: error= 2.62D-05 at cycle   3 NSaved=   3.
 NSaved= 3 IEnMin= 2 EnMin= -420.810466284959     IErMin= 2 ErrMin= 1.81D-05
 ErrMax= 2.62D-05  0.00D+00 EMaxC= 1.00D-01 BMatC= 1.56D-07 BMatP= 8.24D-08
 IDIUse=1 WtCom= 1.00D+00 WtEn= 0.00D+00
 Coeff-Com: -0.425D-01 0.636D+00 0.407D+00
 Coeff:     -0.425D-01 0.636D+00 0.407D+00
 Gap=     0.214 Goal=   None    Shift=    0.000
 RMSDP=2.92D-06 MaxDP=9.65D-05 DE= 9.21D-12 OVMax= 1.58D-04

 Cycle   4  Pass 1  IDiag  1:
 RMSU=  1.99D-06    CP:  1.00D+00  1.08D+00  5.52D-01
 E= -420.810466402636     Delta-E=       -0.000000117686 Rises=F Damp=F
 DIIS: error= 9.14D-06 at cycle   4 NSaved=   4.
 NSaved= 4 IEnMin= 4 EnMin= -420.810466402636     IErMin= 4 ErrMin= 9.14D-06
 ErrMax= 9.14D-06  0.00D+00 EMaxC= 1.00D-01 BMatC= 1.26D-08 BMatP= 8.24D-08
 IDIUse=1 WtCom= 1.00D+00 WtEn= 0.00D+00
 Coeff-Com: -0.183D-01 0.210D+00 0.247D+00 0.561D+00
 Coeff:     -0.183D-01 0.210D+00 0.247D+00 0.561D+00
 Gap=     0.214 Goal=   None    Shift=    0.000
 RMSDP=8.33D-07 MaxDP=2.57D-05 DE=-1.18D-07 OVMax= 4.35D-05

 Cycle   5  Pass 1  IDiag  1:
 RMSU=  5.46D-07    CP:  1.00D+00  1.08D+00  5.97D-01  7.04D-01
 E= -420.810466412747     Delta-E=       -0.000000010111 Rises=F Damp=F
 DIIS: error= 1.82D-06 at cycle   5 NSaved=   5.
 NSaved= 5 IEnMin= 5 EnMin= -420.810466412747     IErMin= 5 ErrMin= 1.82D-06
 ErrMax= 1.82D-06  0.00D+00 EMaxC= 1.00D-01 BMatC= 6.15D-10 BMatP= 1.26D-08
 IDIUse=1 WtCom= 1.00D+00 WtEn= 0.00D+00
 Coeff-Com: -0.553D-02 0.536D-01 0.851D-01 0.257D+00 0.610D+00
 Coeff:     -0.553D-02 0.536D-01 0.851D-01 0.257D+00 0.610D+00
 Gap=     0.214 Goal=   None    Shift=    0.000
 RMSDP=2.79D-07 MaxDP=6.87D-06 DE=-1.01D-08 OVMax= 1.20D-05

 Cycle   6  Pass 1  IDiag  1:
 RMSU=  2.17D-07    CP:  1.00D+00  1.08D+00  6.14D-01  7.39D-01  7.49D-01
 E= -420.810466413090     Delta-E=       -0.000000000343 Rises=F Damp=F
 DIIS: error= 1.71D-06 at cycle   6 NSaved=   6.
 NSaved= 6 IEnMin= 6 EnMin= -420.810466413090     IErMin= 6 ErrMin= 1.71D-06
 ErrMax= 1.71D-06  0.00D+00 EMaxC= 1.00D-01 BMatC= 2.72D-10 BMatP= 6.15D-10
 IDIUse=1 WtCom= 1.00D+00 WtEn= 0.00D+00
 Coeff-Com: -0.617D-04-0.594D-02 0.729D-02 0.594D-01 0.416D+00 0.523D+00
 Coeff:     -0.617D-04-0.594D-02 0.729D-02 0.594D-01 0.416D+00 0.523D+00
 Gap=     0.214 Goal=   None    Shift=    0.000
 RMSDP=1.31D-07 MaxDP=2.81D-06 DE=-3.43D-10 OVMax= 6.37D-06

 Cycle   7  Pass 1  IDiag  1:
 RMSU=  6.35D-08    CP:  1.00D+00  1.09D+00  6.14D-01  7.50D-01  8.43D-01
                    CP:  5.47D-01
 E= -420.810466413352     Delta-E=       -0.000000000263 Rises=F Damp=F
 DIIS: error= 3.05D-07 at cycle   7 NSaved=   7.
 NSaved= 7 IEnMin= 7 EnMin= -420.810466413352     IErMin= 7 ErrMin= 3.05D-07
 ErrMax= 3.05D-07  0.00D+00 EMaxC= 1.00D-01 BMatC= 1.24D-11 BMatP= 2.72D-10
 IDIUse=1 WtCom= 1.00D+00 WtEn= 0.00D+00
 Coeff-Com:  0.449D-03-0.751D-02-0.462D-02 0.547D-02 0.151D+00 0.263D+00
 Coeff-Com:  0.593D+00
 Coeff:      0.449D-03-0.751D-02-0.462D-02 0.547D-02 0.151D+00 0.263D+00
 Coeff:      0.593D+00
 Gap=     0.214 Goal=   None    Shift=    0.000
 RMSDP=3.22D-08 MaxDP=6.53D-07 DE=-2.63D-10 OVMax= 1.31D-06

 Cycle   8  Pass 1  IDiag  1:
 RMSU=  1.95D-08    CP:  1.00D+00  1.09D+00  6.15D-01  7.50D-01  8.54D-01
                    CP:  5.98D-01  6.61D-01
 E= -420.810466413367     Delta-E=       -0.000000000015 Rises=F Damp=F
 DIIS: error= 7.62D-08 at cycle   8 NSaved=   8.
 NSaved= 8 IEnMin= 8 EnMin= -420.810466413367     IErMin= 8 ErrMin= 7.62D-08
 ErrMax= 7.62D-08  0.00D+00 EMaxC= 1.00D-01 BMatC= 1.10D-12 BMatP= 1.24D-11
 IDIUse=1 WtCom= 1.00D+00 WtEn= 0.00D+00
 Coeff-Com:  0.247D-03-0.357D-02-0.333D-02-0.225D-02 0.457D-01 0.957D-01
 Coeff-Com:  0.305D+00 0.562D+00
 Coeff:      0.247D-03-0.357D-02-0.333D-02-0.225D-02 0.457D-01 0.957D-01
 Coeff:      0.305D+00 0.562D+00
 Gap=     0.214 Goal=   None    Shift=    0.000
 RMSDP=9.19D-09 MaxDP=1.74D-07 DE=-1.48D-11 OVMax= 4.89D-07

 SCF Done:  E(RB3LYP) =  -420.810466413     A.U. after    8 cycles
            NFock=  8  Conv=0.92D-08     -V/T= 2.0093
 KE= 4.169242047416D+02 PE=-1.788571229474D+03 EE= 5.468327240355D+02
 Leave Link  502 at Mon Sep 21 10:06:45 2026, MaxMem=  3758096384 cpu:              31.1 elap:               4.0
 (Enter /opt/software/gaussian/16RevA.03/g16/l701.exe)
 ... and contract with generalized density number  0.
 Compute integral first derivatives.
 Leave Link  701 at Mon Sep 21 10:06:45 2026, MaxMem=  3758096384 cpu:               0.6 elap:               0.1
 (Enter /opt/software/gaussian/16RevA.03/g16/l702.exe)
 L702 exits ... SP integral derivatives will be done elsewhere.
 Leave Link  702 at Mon Sep 21 10:06:46 2026, MaxMem=  3758096384 cpu:               0.1 elap:               0.0
 (Enter /opt/software/gaussian/16RevA.03/g16/l703.exe)
 Integral derivatives from FoFJK, PRISM(SPDF).
 Compute integral first derivatives, UseDBF=F ICtDFT=           0.
 Calling FoFJK, ICntrl=      2127 FMM=F ISym2X=0 I1Cent= 0 IOpClX= 0 NMat=1 NMatS=1 NMatT=0.
 FoFJK:  IHMeth= 1 ICntrl=    2127 DoSepK=F KAlg= 0 I1Cent=           0 FoldK=F
 IRaf=         0 NMat=       1 IRICut=       1 DoRegI=T DoRafI=F ISym2E= 0 IDoP0=0 IntGTp=1.
 FoFCou: FMM=F IPFlag=           0 FMFlag=      100000 FMFlg1=         800
         NFxFlg=           0 DoJE=F BraDBF=F KetDBF=F FulRan=T
         wScrn=  0.000000 ICntrl=      2127 IOpCl=  0 I1Cent=           0 NGrid=           0
         NMat0=    1 NMatS0=      1 NMatT0=    0 NMatD0=    1 NMtDS0=    0 NMtDT0=    0
 Symmetry not used in FoFCou.
 Leave Link  703 at Mon Sep 21 10:06:47 2026, MaxMem=  3758096384 cpu:               9.4 elap:               1.2
 (Enter /opt/software/gaussian/16RevA.03/g16/l716.exe)
 Dipole        =-1.59947682D+00 9.46561899D-01 2.85214890D-01
 ***** Axes restored to original set *****
 -------------------------------------------------------------------
 Center     Atomic                   Forces (Hartrees/Bohr)
 Number     Number              X              Y              Z
 -------------------------------------------------------------------
      1        6          -0.000246584    0.000023933   -0.000036780
      2        6           0.000161345   -0.000165234   -0.000011823
      3        6          -0.000016354    0.000094986   -0.000080231
      4        1          -0.000024988   -0.000032673   -0.000018366
      5        6           0.000357703    0.000246853   -0.000162816
      6        6          -0.000038827    0.000213283    0.000013186
      7        1           0.000097551    0.000093156    0.000004614
      8        6          -0.002469951   -0.000054980    0.000032152
      9        6           0.000423598   -0.000163247    0.000148487
     10        1          -0.000042785   -0.000029044    0.000008310
     11        1           0.000003860    0.000000297    0.000013953
     12        1          -0.000102878    0.000388988    0.000200617
     13        8           0.000912507   -0.000600406    0.000116013
     14        1          -0.000401007   -0.000163969   -0.000286515
     15        8           0.001386810    0.000148059    0.000059197
 -------------------------------------------------------------------
 Cartesian Forces:  Max     0.002469951 RMS     0.000480226
 Leave Link  716 at Mon Sep 21 10:06:47 2026, MaxMem=  3758096384 cpu:               0.2 elap:               0.0
 (Enter /opt/software/gaussian/16RevA.03/g16/l103.exe)

 GradGradGradGradGradGradGradGradGradGradGradGradGradGradGradGradGradGrad
 Berny optimization.
 Using GEDIIS/GDIIS optimizer.
 FormGI is forming the generalized inverse of G from B-inverse, IUseBI=4.
 Internal  Forces:  Max     0.001009236 RMS     0.000323280
 Search for a local minimum.
 Step number  16 out of a maximum of   77
 All quantities printed in internal units (Hartrees-Bohrs-Radians)
 RMS Force = .32328D-03 SwitMx=.10000D-02 MixMth= 2
 Mixed Optimization -- En-DIIS/RFO-DIIS
 Swapping is turned off.
 Update second derivatives using D2CorX and points    2    3    4    5    6
                                                      7   10    9   11    8
                                                     13   12   14   15   16
 DE= -1.29D-05 DEPred=-7.33D-06 R= 1.77D+00
 TightC=F SS=  1.41D+00  RLast= 8.51D-03 DXNew= 8.4090D-02 2.5543D-02
 Trust test= 1.77D+00 RLast= 8.51D-03 DXMaxT set to 5.00D-02
 ITU=  1  0 -1 -1  0  0 -1 -1  0  1  1  1 -1  1  1  0
     Eigenvalues ---   -0.01085   0.01636   0.01928   0.02068   0.02133
     Eigenvalues ---    0.02140   0.02156   0.02179   0.02184   0.02187
     Eigenvalues ---    0.02194   0.06982   0.15070   0.15384   0.15897
     Eigenvalues ---    0.16001   0.16076   0.17859   0.21666   0.21973
     Eigenvalues ---    0.22750   0.23131   0.28622   0.30219   0.34987
     Eigenvalues ---    0.35083   0.35106   0.35109   0.35562   0.38184
     Eigenvalues ---    0.40874   0.42468   0.43551   0.45983   0.46416
     Eigenvalues ---    0.46766   0.53882   0.54282   1.01066
 Eigenvalue     1 is  -1.09D-02 should be greater than     0.000000 Eigenvector:
                          D23       D24       D21       D22       D29
   1                   -0.49156  -0.46361  -0.45864  -0.43069  -0.24473
                          D30       D26       D28       D18       D20
   1                   -0.21795  -0.11172  -0.07834   0.07739   0.06145
 Use linear search instead of GDIIS.
 RFO step:  Lambda=-1.08805816D-02 EMin=-1.08546983D-02
 I=     1 Eig=   -1.09D-02 Dot1= -6.63D-05
 I=     1 Stepn= -1.25D-01 RXN=   1.25D-01 EDone=F
 Mixed    1 eigenvectors in step.  Raw Step.Grad=  6.63D-05.
 RFO eigenvector is Hessian eigenvector with negative curvature.
 Taking step of  1.25D-01 in eigenvector direction(s).  Step.Grad= -1.18D-06.
 Quartic linear search produced a step of  2.00000.
 Iteration  1 RMS(Cart)=  0.03580944 RMS(Int)=  0.00080550
 Iteration  2 RMS(Cart)=  0.00105463 RMS(Int)=  0.00000356
 Iteration  3 RMS(Cart)=  0.00000075 RMS(Int)=  0.00000351
 ITry= 1 IFail=0 DXMaxC= 1.86D-01 DCOld= 1.00D+10 DXMaxT= 5.00D-02 DXLimC= 3.00D+00 Rises=F
 Variable       Old X    -DE/DX   Delta X   Delta X   Delta X     New X
                                 (Linear)    (Quad)   (Total)
    R1        2.63056  -0.00000   0.00018  -0.00043  -0.00025   2.63031
    R2        2.64940  -0.00000  -0.00044  -0.00047  -0.00090   2.64849
    R3        2.04988   0.00003   0.00013   0.00092   0.00106   2.05094
    R4        2.05282   0.00003   0.00007   0.00006   0.00013   2.05295
    R5        2.64130  -0.00009  -0.00025   0.00094   0.00069   2.64200
    R6        2.63745   0.00005   0.00022  -0.00169  -0.00147   2.63598
    R7        2.63573  -0.00009  -0.00038   0.00105   0.00067   2.63641
    R8        2.05270   0.00000   0.00001   0.00022   0.00023   2.05293
    R9        2.83921  -0.00085  -0.00149  -0.00063  -0.00212   2.83710
   R10        2.65010  -0.00022   0.00036   0.00037   0.00073   2.65083
   R11        2.05324  -0.00000  -0.00002  -0.00015  -0.00017   2.05307
   R12        2.28500  -0.00093  -0.00040  -0.00034  -0.00074   2.28427
   R13        2.56774   0.00101   0.00292  -0.00328  -0.00036   2.56739
   R14        2.05709  -0.00010  -0.00040  -0.00032  -0.00073   2.05637
   R15        1.83365   0.00011   0.00037  -0.00028   0.00009   1.83374
    A1        2.10172  -0.00025  -0.00129  -0.00005  -0.00134   2.10038
    A2        2.11580   0.00026   0.00138  -0.00114   0.00025   2.11605
    A3        2.06566  -0.00001  -0.00009   0.00118   0.00109   2.06675
    A4        2.09110   0.00004   0.00001   0.00034   0.00035   2.09145
    A5        2.09593  -0.00002   0.00014   0.00018   0.00032   2.09624
    A6        2.09616  -0.00002  -0.00016  -0.00052  -0.00067   2.09549
    A7        2.09438  -0.00007  -0.00052  -0.00051  -0.00103   2.09334
    A8        2.09889  -0.00002  -0.00024   0.00020  -0.00005   2.09884
    A9        2.08990   0.00009   0.00077   0.00030   0.00107   2.09097
   A10        2.04497   0.00048   0.00099   0.00171   0.00269   2.04766
   A11        2.07956   0.00034   0.00156  -0.00035   0.00121   2.08077
   A12        2.15851  -0.00082  -0.00255  -0.00143  -0.00398   2.15452
   A13        2.09290   0.00013   0.00077   0.00024   0.00101   2.09391
   A14        2.09631  -0.00006  -0.00031  -0.00013  -0.00044   2.09587
   A15        2.09395  -0.00007  -0.00047  -0.00012  -0.00058   2.09337
   A16        2.14642   0.00091   0.00091  -0.00319  -0.00229   2.14414
   A17        2.04759  -0.00085  -0.00234   0.00076  -0.00158   2.04600
   A18        2.08915  -0.00006   0.00142   0.00246   0.00387   2.09302
   A19        2.10172  -0.00014  -0.00065   0.00039  -0.00027   2.10145
   A20        2.06498   0.00046   0.00330  -0.00055   0.00274   2.06772
   A21        2.11585  -0.00032  -0.00262  -0.00013  -0.00276   2.11309
   A22        1.93049  -0.00070  -0.00192  -0.00053  -0.00245   1.92804
    D1       -3.13327   0.00003  -0.00003   0.00242   0.00239  -3.13088
    D2        0.01136   0.00003  -0.00002   0.00280   0.00279   0.01415
    D3        0.00707  -0.00000   0.00020   0.00093   0.00112   0.00820
    D4       -3.13148   0.00000   0.00021   0.00131   0.00152  -3.12996
    D5        3.14023   0.00000   0.00103  -0.00209  -0.00106   3.13917
    D6       -0.01936  -0.00007   0.00034  -0.00603  -0.00569  -0.02505
    D7       -0.00015   0.00003   0.00080  -0.00064   0.00017   0.00002
    D8        3.12345  -0.00004   0.00011  -0.00457  -0.00446   3.11899
    D9        0.00361   0.00001  -0.00025   0.00131   0.00105   0.00466
   D10        3.13853  -0.00002  -0.00025  -0.00046  -0.00071   3.13782
   D11       -3.13494   0.00001  -0.00024   0.00169   0.00145  -3.13349
   D12       -0.00002  -0.00002  -0.00024  -0.00007  -0.00031  -0.00034
   D13       -0.01033  -0.00001   0.00018  -0.00210  -0.00192  -0.01225
   D14        3.13793   0.00001   0.00018  -0.00034  -0.00016   3.13777
   D15        3.12466  -0.00005  -0.00003  -0.00410  -0.00413   3.12053
   D16       -0.01027  -0.00002  -0.00003  -0.00234  -0.00237  -0.01264
   D17        0.00215  -0.00002   0.00016  -0.00120  -0.00104   0.00111
   D18        3.10593  -0.00011   0.00099  -0.00967  -0.00869   3.09725
   D19       -3.13288   0.00001   0.00037   0.00079   0.00117  -3.13171
   D20       -0.02909  -0.00007   0.00120  -0.00768  -0.00648  -0.03557
   D21        0.27102   0.00043   0.00136   0.05733   0.05869   0.32971
   D22       -2.86272   0.00012   0.00473   0.05384   0.05857  -2.80415
   D23       -2.85170   0.00049   0.00203   0.06145   0.06348  -2.78822
   D24        0.29775   0.00018   0.00541   0.05795   0.06336   0.36110
   D25        0.01260   0.00006  -0.00041   0.00523   0.00483   0.01743
   D26       -3.09007   0.00013  -0.00140   0.01397   0.01256  -3.07751
   D27        3.13496   0.00000  -0.00110   0.00106  -0.00003   3.13494
   D28        0.03229   0.00007  -0.00209   0.00979   0.00770   0.04000
   D29        0.13696   0.00044   0.00723   0.03059   0.03783   0.17479
   D30       -2.99705   0.00014   0.01049   0.02724   0.03774  -2.95931
         Item               Value     Threshold  Converged?
 Maximum Force            0.001009     0.000450     NO 
 RMS     Force            0.000323     0.000300     NO 
 Maximum Displacement     0.186149     0.001800     NO 
 RMS     Displacement     0.035837     0.001200     NO 
 Predicted change in Energy=-2.031497D-04
 Lowest energy point so far.  Saving SCF results.
 GradGradGradGradGradGradGradGradGradGradGradGradGradGradGradGradGradGrad

 Leave Link  103 at Mon Sep 21 10:06:47 2026, MaxMem=  3758096384 cpu:               0.6 elap:               0.1
 (Enter /opt/software/gaussian/16RevA.03/g16/l202.exe)
                          Input orientation:                          
 ---------------------------------------------------------------------
 Center     Atomic      Atomic             Coordinates (Angstroms)
 Number     Number       Type             X           Y           Z
 ---------------------------------------------------------------------
      1          6           0       -0.840670    2.009728   -0.004262
      2          6           0       -1.509157    0.789285    0.027734
      3          6           0        0.609458   -0.376340    0.069494
      4          1           0       -2.595320    0.767930    0.029361
      5          6           0        0.560204    2.049489   -0.019636
      6          6           0       -0.785103   -0.406216    0.061861
      7          1           0       -1.384211    2.948984   -0.020226
      8          6           0        1.210821    3.401989   -0.057395
      9          6           0        1.279953    0.846408    0.028249
     10          1           0        1.176522   -1.301806    0.115724
     11          1           0       -1.307246   -1.358529    0.090379
     12          1           0        2.367014    0.843882    0.077595
     13          8           0        0.632537    4.416715    0.254173
     14          1           0        2.779371    2.604252   -0.840164
     15          8           0        2.503336    3.458638   -0.472122
 ---------------------------------------------------------------------
                    Distance matrix (angstroms):
                    1          2          3          4          5
     1  C    0.000000
     2  C    1.391898   0.000000
     3  C    2.793140   2.418462   0.000000
     4  H    2.149882   1.086374   3.403171   0.000000
     5  C    1.401522   2.423348   2.427966   3.406190   0.000000
     6  C    2.417487   1.398085   1.394902   2.157907   2.801246
     7  H    1.085309   2.163842   3.878215   2.495244   2.142392
     8  C    2.479885   3.772500   3.827990   4.629525   1.501327
     9  C    2.418968   2.789695   1.395126   3.876067   1.402760
    10  H    3.879396   3.404890   1.086363   4.303261   3.410183
    11  H    3.401735   2.158193   2.153807   2.486902   3.887680
    12  H    3.413961   3.876876   2.139628   4.963149   2.174282
    13  O    2.833852   4.218576   4.796668   4.876806   2.384106
    14  H    3.762564   4.736964   3.797358   5.745908   2.430171
    15  O    3.674317   4.845143   4.311285   5.786855   2.442582
                    6          7          8          9         10
     6  C    0.000000
     7  H    3.409258   0.000000
     8  C    4.301204   2.634538   0.000000
     9  C    2.415502   3.394252   2.557950   0.000000
    10  H    2.157071   4.964379   4.707105   2.152481   0.000000
    11  H    1.086438   4.309620   5.387488   3.399883   2.484545
    12  H    3.390992   4.302640   2.810500   1.088183   2.454120
    13  O    5.030641   2.509343   1.208783   3.635558   5.746005
    14  H    4.752056   4.257529   1.925996   2.468282   4.328988
    15  O    5.102555   3.946768   1.358603   2.927590   4.976729
                   11         12         13         14         15
    11  H    0.000000
    12  H    4.283802   0.000000
    13  O    6.094508   3.975515   0.000000
    14  H    5.768014   2.027615   3.015210   0.000000
    15  O    6.167823   2.675392   2.223804   0.970374   0.000000
 Stoichiometry    C7H6O2
 Framework group  C1[X(C7H6O2)]
 Deg. of freedom    39
 Full point group                 C1      NOp   1
 RotChk:  IX=0 Diff= 9.54D-03
 Largest Abelian subgroup         C1      NOp   1
 Largest concise Abelian subgroup C1      NOp   1
                         Standard orientation:                         
 ---------------------------------------------------------------------
 Center     Atomic      Atomic             Coordinates (Angstroms)
 Number     Number       Type             X           Y           Z
 ---------------------------------------------------------------------
      1          6           0       -0.486326   -1.211814    0.106457
      2          6           0       -1.877832   -1.191077    0.132141
      3          6           0       -1.852217    1.213663   -0.123845
      4          1           0       -2.430325   -2.120630    0.236504
      5          6           0        0.237443   -0.017784   -0.014855
      6          6           0       -2.563302    0.022247    0.019810
      7          1           0        0.064201   -2.144119    0.181441
      8          6           0        1.735280   -0.118622   -0.032215
      9          6           0       -0.457324    1.194340   -0.140505
     10          1           0       -2.380478    2.156853   -0.231159
     11          1           0       -3.649504    0.037663    0.036368
     12          1           0        0.072662    2.131960   -0.295837
     13          8           0        2.320399   -1.147084   -0.279314
     14          1           0        1.845728    1.701275    0.588456
     15          8           0        2.437523    1.008495    0.254601
 ---------------------------------------------------------------------
 Rotational constants (GHZ):           3.8321556           1.2104602           0.9322505
 Leave Link  202 at Mon Sep 21 10:06:47 2026, MaxMem=  3758096384 cpu:               0.3 elap:               0.1
 (Enter /opt/software/gaussian/16RevA.03/g16/l301.exe)
 Standard basis: 6-31G(d) (6D, 7F)
 Ernie: Thresh=  0.10000D-02 Tol=  0.10000D-05 Strict=F.
 There are   147 symmetry adapted cartesian basis functions of A   symmetry.
 There are   147 symmetry adapted basis functions of A   symmetry.
   147 basis functions,   276 primitive gaussians,   147 cartesian basis functions
    32 alpha electrons       32 beta electrons
       nuclear repulsion energy       404.0601231932 Hartrees.
 IExCor=  402 DFT=T Ex+Corr=B3LYP ExCW=0 ScaHFX=  0.200000
 ScaDFX=  0.800000  0.720000  1.000000  0.810000 ScalE2=  1.000000  1.000000
 IRadAn=      5 IRanWt=     -1 IRanGd=            0 ICorTp=0 IEmpDi=  4
 NAtoms=   15 NActive=   15 NUniq=   15 SFac= 1.00D+00 NAtFMM=   60 NAOKFM=F Big=F
 Integral buffers will be    131072 words long.
 Raffenetti 2 integral format.
 Two-electron integral symmetry is turned on.
 Leave Link  301 at Mon Sep 21 10:06:47 2026, MaxMem=  3758096384 cpu:               0.5 elap:               0.1
 (Enter /opt/software/gaussian/16RevA.03/g16/l302.exe)
 NPDir=0 NMtPBC=     1 NCelOv=     1 NCel=       1 NClECP=     1 NCelD=      1
         NCelK=      1 NCelE2=     1 NClLst=     1 CellRange=     0.0.
 One-electron integrals computed using PRISM.
 One-electron integral symmetry used in STVInt
 NBasis=   147 RedAO= T EigKep=  4.73D-04  NBF=   147
 NBsUse=   147 1.00D-06 EigRej= -1.00D+00 NBFU=   147
 Precomputing XC quadrature grid using
 IXCGrd= 4 IRadAn=           5 IRanWt=          -1 IRanGd=           0 AccXCQ= 0.00D+00.
 Generated NRdTot=       0 NPtTot=           0 NUsed=           0 NTot=          32
 NSgBfM=   147   147   147   147   147 MxSgAt=    15 MxSgA2=    15.
 Leave Link  302 at Mon Sep 21 10:06:47 2026, MaxMem=  3758096384 cpu:               1.0 elap:               0.1
 (Enter /opt/software/gaussian/16RevA.03/g16/l303.exe)
 DipDrv:  MaxL=1.
 Leave Link  303 at Mon Sep 21 10:06:48 2026, MaxMem=  3758096384 cpu:               0.2 elap:               0.0
 (Enter /opt/software/gaussian/16RevA.03/g16/l401.exe)
 Initial guess from the checkpoint file:  "job.chk"
 B after Tr=    -0.000000    0.000000   -0.000000
         Rot=    1.000000   -0.000599    0.000054   -0.000170 Ang=  -0.07 deg.
 Guess basis will be translated and rotated to current coordinates.
 JPrj=2 DoOrth=T DoCkMO=T.
 Generating alternative initial guess.
 ExpMin= 1.61D-01 ExpMax= 5.48D+03 ExpMxC= 8.25D+02 IAcc=2 IRadAn=         4 AccDes= 0.00D+00
 Harris functional with IExCor=  402 and IRadAn=       4 diagonalized for initial guess.
 HarFok:  IExCor=  402 AccDes= 0.00D+00 IRadAn=         4 IDoV= 1 UseB2=F ITyADJ=14
 ICtDFT=  3500011 ScaDFX=  1.000000  1.000000  1.000000  1.000000
 FoFCou: FMM=F IPFlag=           0 FMFlag=      100000 FMFlg1=           0
         NFxFlg=           0 DoJE=T BraDBF=F KetDBF=T FulRan=T
         wScrn=  0.000000 ICntrl=       500 IOpCl=  0 I1Cent=   200000004 NGrid=           0
         NMat0=    1 NMatS0=      1 NMatT0=    0 NMatD0=    1 NMtDS0=    0 NMtDT0=    0
 Petite list used in FoFCou.
 Harris En= -420.838891857409    
 Leave Link  401 at Mon Sep 21 10:06:48 2026, MaxMem=  3758096384 cpu:               2.4 elap:               0.3
 (Enter /opt/software/gaussian/16RevA.03/g16/l502.exe)
 Integral symmetry usage will be decided dynamically.
 Closed shell SCF:
 Using DIIS extrapolation, IDIIS=  1040.
 NGot=  3758096384 LenX=  3758050306 LenY=  3758028256
 Requested convergence on RMS density matrix=1.00D-08 within 128 cycles.
 Requested convergence on MAX density matrix=1.00D-06.
 Requested convergence on             energy=1.00D-06.
 No special actions if energy rises.
 Fock matrices will be formed incrementally for  20 cycles.
 Integral accuracy reduced to 1.0D-05 until final iterations.

 Cycle   1  Pass 0  IDiag  1:
 FoFJK:  IHMeth= 1 ICntrl=       0 DoSepK=F KAlg= 0 I1Cent=           0 FoldK=F
 IRaf= 940000000 NMat=       1 IRICut=       1 DoRegI=T DoRafI=F ISym2E= 0 IDoP0=0 IntGTp=1.
 FoFCou: FMM=F IPFlag=           0 FMFlag=      100000 FMFlg1=           0
         NFxFlg=           0 DoJE=F BraDBF=F KetDBF=F FulRan=T
         wScrn=  0.000000 ICntrl=         0 IOpCl=  0 I1Cent=           0 NGrid=           0
         NMat0=    1 NMatS0=      1 NMatT0=    0 NMatD0=    1 NMtDS0=    0 NMtDT0=    0
 Symmetry not used in FoFCou.
 E= -420.807692749436    
 DIIS: error= 2.58D-03 at cycle   1 NSaved=   1.
 NSaved= 1 IEnMin= 1 EnMin= -420.807692749436     IErMin= 1 ErrMin= 2.58D-03
 ErrMax= 2.58D-03  0.00D+00 EMaxC= 1.00D-01 BMatC= 1.38D-03 BMatP= 1.38D-03
 IDIUse=3 WtCom= 9.74D-01 WtEn= 2.58D-02
 Coeff-Com:  0.100D+01
 Coeff-En:   0.100D+01
 Coeff:      0.100D+01
 Gap=     1.912 Goal=   None    Shift=    0.000
 GapD=    1.912 DampG=2.000 DampE=1.000 DampFc=2.0000 IDamp=-1.
 RMSDP=4.79D-04 MaxDP=1.12D-02              OVMax= 1.90D-02

 Cycle   2  Pass 0  IDiag  1:
 RMSU=  4.79D-04    CP:  9.99D-01
 E= -420.810476222790     Delta-E=       -0.002783473355 Rises=F Damp=F
 DIIS: error= 3.67D-04 at cycle   2 NSaved=   2.
 NSaved= 2 IEnMin= 2 EnMin= -420.810476222790     IErMin= 2 ErrMin= 3.67D-04
 ErrMax= 3.67D-04  0.00D+00 EMaxC= 1.00D-01 BMatC= 2.57D-05 BMatP= 1.38D-03
 IDIUse=3 WtCom= 9.96D-01 WtEn= 3.67D-03
 Coeff-Com: -0.620D-01 0.106D+01
 Coeff-En:   0.000D+00 0.100D+01
 Coeff:     -0.618D-01 0.106D+01
 Gap=     0.214 Goal=   None    Shift=    0.000
 RMSDP=8.25D-05 MaxDP=1.43D-03 DE=-2.78D-03 OVMax= 2.74D-03

 Cycle   3  Pass 0  IDiag  1:
 RMSU=  7.36D-05    CP:  9.99D-01  1.08D+00
 E= -420.810505325974     Delta-E=       -0.000029103183 Rises=F Damp=F
 DIIS: error= 2.49D-04 at cycle   3 NSaved=   3.
 NSaved= 3 IEnMin= 3 EnMin= -420.810505325974     IErMin= 3 ErrMin= 2.49D-04
 ErrMax= 2.49D-04  0.00D+00 EMaxC= 1.00D-01 BMatC= 2.18D-05 BMatP= 2.57D-05
 IDIUse=3 WtCom= 9.98D-01 WtEn= 2.49D-03
 Coeff-Com: -0.425D-01 0.543D+00 0.500D+00
 Coeff-En:   0.000D+00 0.000D+00 0.100D+01
 Coeff:     -0.424D-01 0.541D+00 0.501D+00
 Gap=     0.214 Goal=   None    Shift=    0.000
 RMSDP=4.26D-05 MaxDP=1.28D-03 DE=-2.91D-05 OVMax= 1.95D-03

 Cycle   4  Pass 0  IDiag  1:
 RMSU=  3.06D-05    CP:  9.99D-01  1.09D+00  6.04D-01
 E= -420.810519672222     Delta-E=       -0.000014346248 Rises=F Damp=F
 DIIS: error= 1.66D-04 at cycle   4 NSaved=   4.
 NSaved= 4 IEnMin= 4 EnMin= -420.810519672222     IErMin= 4 ErrMin= 1.66D-04
 ErrMax= 1.66D-04  0.00D+00 EMaxC= 1.00D-01 BMatC= 5.82D-06 BMatP= 2.18D-05
 IDIUse=3 WtCom= 9.98D-01 WtEn= 1.66D-03
 Coeff-Com: -0.162D-01 0.165D+00 0.340D+00 0.511D+00
 Coeff-En:   0.000D+00 0.000D+00 0.224D+00 0.776D+00
 Coeff:     -0.162D-01 0.164D+00 0.340D+00 0.512D+00
 Gap=     0.214 Goal=   None    Shift=    0.000
 RMSDP=1.57D-05 MaxDP=5.98D-04 DE=-1.43D-05 OVMax= 8.98D-04

 Cycle   5  Pass 0  IDiag  1:
 RMSU=  8.66D-06    CP:  9.99D-01  1.09D+00  6.88D-01  6.31D-01
 E= -420.810524246886     Delta-E=       -0.000004574664 Rises=F Damp=F
 DIIS: error= 2.98D-05 at cycle   5 NSaved=   5.
 NSaved= 5 IEnMin= 5 EnMin= -420.810524246886     IErMin= 5 ErrMin= 2.98D-05
 ErrMax= 2.98D-05  0.00D+00 EMaxC= 1.00D-01 BMatC= 2.20D-07 BMatP= 5.82D-06
 IDIUse=1 WtCom= 1.00D+00 WtEn= 0.00D+00
 Coeff-Com: -0.490D-02 0.423D-01 0.128D+00 0.245D+00 0.590D+00
 Coeff:     -0.490D-02 0.423D-01 0.128D+00 0.245D+00 0.590D+00
 Gap=     0.214 Goal=   None    Shift=    0.000
 RMSDP=4.92D-06 MaxDP=1.21D-04 DE=-4.57D-06 OVMax= 2.35D-04

 Initial convergence to 1.0D-05 achieved.  Increase integral accuracy.
 Cycle   6  Pass 1  IDiag  1:
 E= -420.810524051506     Delta-E=        0.000000195380 Rises=F Damp=F
 DIIS: error= 2.76D-05 at cycle   1 NSaved=   1.
 NSaved= 1 IEnMin= 1 EnMin= -420.810524051506     IErMin= 1 ErrMin= 2.76D-05
 ErrMax= 2.76D-05  0.00D+00 EMaxC= 1.00D-01 BMatC= 9.40D-08 BMatP= 9.40D-08
 IDIUse=1 WtCom= 1.00D+00 WtEn= 0.00D+00
 Coeff-Com:  0.100D+01
 Coeff:      0.100D+01
 Gap=     0.214 Goal=   None    Shift=    0.000
 RMSDP=4.92D-06 MaxDP=1.21D-04 DE= 1.95D-07 OVMax= 3.40D-04

 Cycle   7  Pass 1  IDiag  1:
 RMSU=  7.27D-06    CP:  1.00D+00
 E= -420.810523808524     Delta-E=        0.000000242982 Rises=F Damp=F
 DIIS: error= 5.48D-05 at cycle   2 NSaved=   2.
 NSaved= 2 IEnMin= 1 EnMin= -420.810524051506     IErMin= 1 ErrMin= 2.76D-05
 ErrMax= 5.48D-05  0.00D+00 EMaxC= 1.00D-01 BMatC= 3.32D-07 BMatP= 9.40D-08
 IDIUse=1 WtCom= 1.00D+00 WtEn= 0.00D+00
 Coeff-Com:  0.660D+00 0.340D+00
 Coeff:      0.660D+00 0.340D+00
 Gap=     0.214 Goal=   None    Shift=    0.000
 RMSDP=4.10D-06 MaxDP=1.02D-04 DE= 2.43D-07 OVMax= 2.27D-04

 Cycle   8  Pass 1  IDiag  1:
 RMSU=  2.65D-06    CP:  1.00D+00  5.70D-01
 E= -420.810524142819     Delta-E=       -0.000000334294 Rises=F Damp=F
 DIIS: error= 4.31D-06 at cycle   3 NSaved=   3.
 NSaved= 3 IEnMin= 3 EnMin= -420.810524142819     IErMin= 3 ErrMin= 4.31D-06
 ErrMax= 4.31D-06  0.00D+00 EMaxC= 1.00D-01 BMatC= 4.27D-09 BMatP= 9.40D-08
 IDIUse=1 WtCom= 1.00D+00 WtEn= 0.00D+00
 Coeff-Com:  0.194D+00 0.140D+00 0.666D+00
 Coeff:      0.194D+00 0.140D+00 0.666D+00
 Gap=     0.214 Goal=   None    Shift=    0.000
 RMSDP=6.35D-07 MaxDP=2.29D-05 DE=-3.34D-07 OVMax= 3.37D-05

 Cycle   9  Pass 1  IDiag  1:
 RMSU=  5.96D-07    CP:  1.00D+00  5.90D-01  9.39D-01
 E= -420.810524144090     Delta-E=       -0.000000001272 Rises=F Damp=F
 DIIS: error= 2.98D-06 at cycle   4 NSaved=   4.
 NSaved= 4 IEnMin= 4 EnMin= -420.810524144090     IErMin= 4 ErrMin= 2.98D-06
 ErrMax= 2.98D-06  0.00D+00 EMaxC= 1.00D-01 BMatC= 2.62D-09 BMatP= 4.27D-09
 IDIUse=1 WtCom= 1.00D+00 WtEn= 0.00D+00
 Coeff-Com:  0.356D-02 0.303D-01 0.472D+00 0.495D+00
 Coeff:      0.356D-02 0.303D-01 0.472D+00 0.495D+00
 Gap=     0.214 Goal=   None    Shift=    0.000
 RMSDP=3.35D-07 MaxDP=9.72D-06 DE=-1.27D-09 OVMax= 1.47D-05

 Cycle  10  Pass 1  IDiag  1:
 RMSU=  1.20D-07    CP:  1.00D+00  5.99D-01  9.46D-01  4.88D-01
 E= -420.810524146261     Delta-E=       -0.000000002171 Rises=F Damp=F
 DIIS: error= 6.61D-07 at cycle   5 NSaved=   5.
 NSaved= 5 IEnMin= 5 EnMin= -420.810524146261     IErMin= 5 ErrMin= 6.61D-07
 ErrMax= 6.61D-07  0.00D+00 EMaxC= 1.00D-01 BMatC= 7.65D-11 BMatP= 2.62D-09
 IDIUse=1 WtCom= 1.00D+00 WtEn= 0.00D+00
 Coeff-Com: -0.411D-02 0.125D-01 0.249D+00 0.284D+00 0.459D+00
 Coeff:     -0.411D-02 0.125D-01 0.249D+00 0.284D+00 0.459D+00
 Gap=     0.214 Goal=   None    Shift=    0.000
 RMSDP=7.04D-08 MaxDP=1.82D-06 DE=-2.17D-09 OVMax= 3.41D-06

 Cycle  11  Pass 1  IDiag  1:
 RMSU=  4.33D-08    CP:  1.00D+00  5.97D-01  9.51D-01  5.15D-01  5.84D-01
 E= -420.810524146335     Delta-E=       -0.000000000074 Rises=F Damp=F
 DIIS: error= 1.41D-07 at cycle   6 NSaved=   6.
 NSaved= 6 IEnMin= 6 EnMin= -420.810524146335     IErMin= 6 ErrMin= 1.41D-07
 ErrMax= 1.41D-07  0.00D+00 EMaxC= 1.00D-01 BMatC= 3.92D-12 BMatP= 7.65D-11
 IDIUse=1 WtCom= 1.00D+00 WtEn= 0.00D+00
 Coeff-Com: -0.239D-02 0.166D-02 0.520D-01 0.651D-01 0.214D+00 0.670D+00
 Coeff:     -0.239D-02 0.166D-02 0.520D-01 0.651D-01 0.214D+00 0.670D+00
 Gap=     0.214 Goal=   None    Shift=    0.000
 RMSDP=1.60D-08 MaxDP=3.61D-07 DE=-7.42D-11 OVMax= 7.27D-07

 Cycle  12  Pass 1  IDiag  1:
 RMSU=  1.28D-08    CP:  1.00D+00  5.97D-01  9.52D-01  5.16D-01  6.50D-01
                    CP:  8.78D-01
 E= -420.810524146343     Delta-E=       -0.000000000007 Rises=F Damp=F
 DIIS: error= 2.18D-08 at cycle   7 NSaved=   7.
 NSaved= 7 IEnMin= 7 EnMin= -420.810524146343     IErMin= 7 ErrMin= 2.18D-08
 ErrMax= 2.18D-08  0.00D+00 EMaxC= 1.00D-01 BMatC= 1.16D-13 BMatP= 3.92D-12
 IDIUse=1 WtCom= 1.00D+00 WtEn= 0.00D+00
 Coeff-Com: -0.145D-03-0.782D-03-0.124D-01-0.129D-01 0.266D-02 0.134D+00
 Coeff-Com:  0.890D+00
 Coeff:     -0.145D-03-0.782D-03-0.124D-01-0.129D-01 0.266D-02 0.134D+00
 Coeff:      0.890D+00
 Gap=     0.214 Goal=   None    Shift=    0.000
 RMSDP=4.90D-09 MaxDP=9.20D-08 DE=-7.39D-12 OVMax= 2.45D-07

 SCF Done:  E(RB3LYP) =  -420.810524146     A.U. after   12 cycles
            NFock= 12  Conv=0.49D-08     -V/T= 2.0093
 KE= 4.169283266176D+02 PE=-1.788696737290D+03 EE= 5.468977633329D+02
 Leave Link  502 at Mon Sep 21 10:06:53 2026, MaxMem=  3758096384 cpu:              36.6 elap:               4.7
 (Enter /opt/software/gaussian/16RevA.03/g16/l701.exe)
 ... and contract with generalized density number  0.
 Compute integral first derivatives.
 Leave Link  701 at Mon Sep 21 10:06:53 2026, MaxMem=  3758096384 cpu:               0.6 elap:               0.1
 (Enter /opt/software/gaussian/16RevA.03/g16/l702.exe)
 L702 exits ... SP integral derivatives will be done elsewhere.
 Leave Link  702 at Mon Sep 21 10:06:53 2026, MaxMem=  3758096384 cpu:               0.1 elap:               0.0
 (Enter /opt/software/gaussian/16RevA.03/g16/l703.exe)
 Integral derivatives from FoFJK, PRISM(SPDF).
 Compute integral first derivatives, UseDBF=F ICtDFT=           0.
 Calling FoFJK, ICntrl=      2127 FMM=F ISym2X=0 I1Cent= 0 IOpClX= 0 NMat=1 NMatS=1 NMatT=0.
 FoFJK:  IHMeth= 1 ICntrl=    2127 DoSepK=F KAlg= 0 I1Cent=           0 FoldK=F
 IRaf=         0 NMat=       1 IRICut=       1 DoRegI=T DoRafI=F ISym2E= 0 IDoP0=0 IntGTp=1.
 FoFCou: FMM=F IPFlag=           0 FMFlag=      100000 FMFlg1=         800
         NFxFlg=           0 DoJE=F BraDBF=F KetDBF=F FulRan=T
         wScrn=  0.000000 ICntrl=      2127 IOpCl=  0 I1Cent=           0 NGrid=           0
         NMat0=    1 NMatS0=      1 NMatT0=    0 NMatD0=    1 NMtDS0=    0 NMtDT0=    0
 Symmetry not used in FoFCou.
 Leave Link  703 at Mon Sep 21 10:06:54 2026, MaxMem=  3758096384 cpu:               9.4 elap:               1.2
 (Enter /opt/software/gaussian/16RevA.03/g16/l716.exe)
 Dipole        =-1.58882017D+00 9.26997133D-01 3.48295909D-01
 ***** Axes restored to original set *****
 -------------------------------------------------------------------
 Center     Atomic                   Forces (Hartrees/Bohr)
 Number     Number              X              Y              Z
 -------------------------------------------------------------------
      1        6          -0.000609262    0.000269251   -0.000191475
      2        6           0.000036854   -0.000404496    0.000017889
      3        6           0.000403049    0.000466254    0.000059261
      4        1           0.000014450   -0.000005791    0.000000059
      5        6           0.000952356   -0.000548716   -0.000129711
      6        6          -0.000700195    0.000179838   -0.000024309
      7        1           0.000221201   -0.000232132    0.000006215
      8        6          -0.003427837   -0.000384108    0.000300003
      9        6           0.000483422   -0.000146542    0.000130913
     10        1          -0.000015972    0.000084350    0.000014889
     11        1          -0.000111192   -0.000039986   -0.000004013
     12        1           0.000110153    0.000718581   -0.000241110
     13        8           0.001258862    0.000238778    0.000159820
     14        1          -0.000377071   -0.000663435    0.000153148
     15        8           0.001761181    0.000468155   -0.000251580
 -------------------------------------------------------------------
 Cartesian Forces:  Max     0.003427837 RMS     0.000689696
 Leave Link  716 at Mon Sep 21 10:06:54 2026, MaxMem=  3758096384 cpu:               0.2 elap:               0.0
 (Enter /opt/software/gaussian/16RevA.03/g16/l103.exe)

 GradGradGradGradGradGradGradGradGradGradGradGradGradGradGradGradGradGrad
 Berny optimization.
 Using GEDIIS/GDIIS optimizer.
 FormGI is forming the generalized inverse of G from B-inverse, IUseBI=4.
 Internal  Forces:  Max     0.002284796 RMS     0.000553784
 Search for a local minimum.
 Step number  17 out of a maximum of   77
 All quantities printed in internal units (Hartrees-Bohrs-Radians)
 RMS Force = .55378D-03 SwitMx=.10000D-02 MixMth= 2
 Mixed Optimization -- En-DIIS/RFO-DIIS
 Update second derivatives using D2CorX and points   10    9   11    8   13
                                                     12   14   15   16   17
 ITU=  0  1  0 -1 -1  0  0 -1 -1  0  1  1  1 -1  1  1  0
 Use linear search instead of GDIIS.
     Eigenvalues ---    0.00481   0.01641   0.01880   0.02107   0.02134
     Eigenvalues ---    0.02154   0.02179   0.02183   0.02186   0.02191
     Eigenvalues ---    0.02233   0.06714   0.15244   0.15441   0.15895
     Eigenvalues ---    0.16003   0.16090   0.18049   0.21745   0.21922
     Eigenvalues ---    0.22786   0.23227   0.28710   0.33098   0.35026
     Eigenvalues ---    0.35086   0.35105   0.35110   0.35935   0.37634
     Eigenvalues ---    0.40419   0.42481   0.43521   0.46360   0.46518
     Eigenvalues ---    0.46780   0.54395   0.55687   1.01111
 RFO step:  Lambda=-6.68859847D-05 EMin= 4.80806550D-03
 Quartic linear search produced a step of -0.03352.
 Iteration  1 RMS(Cart)=  0.01151521 RMS(Int)=  0.00009565
 Iteration  2 RMS(Cart)=  0.00010905 RMS(Int)=  0.00000208
 Iteration  3 RMS(Cart)=  0.00000000 RMS(Int)=  0.00000208
 ITry= 1 IFail=0 DXMaxC= 4.51D-02 DCOld= 1.00D+10 DXMaxT= 5.00D-02 DXLimC= 3.00D+00 Rises=F
 Variable       Old X    -DE/DX   Delta X   Delta X   Delta X     New X
                                 (Linear)    (Quad)   (Total)
    R1        2.63031   0.00013   0.00001   0.00019   0.00020   2.63051
    R2        2.64849   0.00038   0.00003   0.00035   0.00038   2.64888
    R3        2.05094  -0.00031  -0.00004  -0.00041  -0.00045   2.05049
    R4        2.05295  -0.00001  -0.00000   0.00003   0.00003   2.05297
    R5        2.64200  -0.00024  -0.00002  -0.00053  -0.00055   2.64145
    R6        2.63598   0.00077   0.00005   0.00110   0.00115   2.63714
    R7        2.63641  -0.00020  -0.00002  -0.00055  -0.00057   2.63584
    R8        2.05293  -0.00008  -0.00001  -0.00014  -0.00015   2.05278
    R9        2.83710  -0.00066   0.00007  -0.00234  -0.00227   2.83483
   R10        2.65083  -0.00076  -0.00002  -0.00017  -0.00019   2.65064
   R11        2.05307   0.00009   0.00001   0.00023   0.00023   2.05330
   R12        2.28427  -0.00036   0.00002  -0.00075  -0.00073   2.28354
   R13        2.56739   0.00134   0.00001   0.00535   0.00536   2.57275
   R14        2.05637   0.00010   0.00002  -0.00028  -0.00026   2.05611
   R15        1.83374   0.00042  -0.00000   0.00076   0.00076   1.83450
    A1        2.10038  -0.00022   0.00004  -0.00128  -0.00124   2.09914
    A2        2.11605   0.00019  -0.00001   0.00132   0.00131   2.11736
    A3        2.06675   0.00003  -0.00004  -0.00003  -0.00007   2.06668
    A4        2.09145   0.00007  -0.00001   0.00064   0.00063   2.09208
    A5        2.09624  -0.00013  -0.00001  -0.00032  -0.00034   2.09591
    A6        2.09549   0.00006   0.00002  -0.00032  -0.00030   2.09519
    A7        2.09334   0.00013   0.00003  -0.00001   0.00002   2.09337
    A8        2.09884  -0.00003   0.00000  -0.00053  -0.00053   2.09831
    A9        2.09097  -0.00010  -0.00004   0.00055   0.00051   2.09148
   A10        2.04766   0.00106  -0.00009   0.00316   0.00307   2.05073
   A11        2.08077   0.00054  -0.00004   0.00227   0.00223   2.08300
   A12        2.15452  -0.00161   0.00013  -0.00543  -0.00529   2.14923
   A13        2.09391  -0.00001  -0.00003   0.00091   0.00087   2.09479
   A14        2.09587  -0.00007   0.00001  -0.00088  -0.00086   2.09501
   A15        2.09337   0.00009   0.00002  -0.00003  -0.00001   2.09337
   A16        2.14414   0.00228   0.00008   0.00593   0.00600   2.15014
   A17        2.04600  -0.00198   0.00005  -0.00612  -0.00607   2.03993
   A18        2.09302  -0.00030  -0.00013   0.00023   0.00010   2.09312
   A19        2.10145  -0.00031   0.00001  -0.00152  -0.00151   2.09995
   A20        2.06772   0.00090  -0.00009   0.00577   0.00568   2.07340
   A21        2.11309  -0.00059   0.00009  -0.00424  -0.00415   2.10895
   A22        1.92804  -0.00113   0.00008  -0.00452  -0.00444   1.92360
    D1       -3.13088  -0.00002  -0.00008  -0.00076  -0.00084  -3.13171
    D2        0.01415  -0.00001  -0.00009  -0.00029  -0.00038   0.01376
    D3        0.00820   0.00001  -0.00004   0.00110   0.00107   0.00927
    D4       -3.12996   0.00002  -0.00005   0.00157   0.00152  -3.12844
    D5        3.13917   0.00005   0.00004   0.00207   0.00210   3.14127
    D6       -0.02505   0.00005   0.00019   0.00235   0.00254  -0.02251
    D7        0.00002   0.00001  -0.00001   0.00026   0.00025   0.00027
    D8        3.11899   0.00002   0.00015   0.00054   0.00069   3.11968
    D9        0.00466  -0.00002  -0.00004  -0.00078  -0.00082   0.00384
   D10        3.13782  -0.00000   0.00002  -0.00018  -0.00016   3.13766
   D11       -3.13349  -0.00001  -0.00005  -0.00032  -0.00036  -3.13386
   D12       -0.00034   0.00001   0.00001   0.00028   0.00029  -0.00004
   D13       -0.01225  -0.00000   0.00006  -0.00029  -0.00023  -0.01248
   D14        3.13777  -0.00002   0.00001  -0.00088  -0.00088   3.13689
   D15        3.12053   0.00003   0.00014   0.00065   0.00078   3.12131
   D16       -0.01264   0.00001   0.00008   0.00005   0.00013  -0.01251
   D17        0.00111   0.00005   0.00003   0.00241   0.00245   0.00356
   D18        3.09725   0.00008   0.00029   0.00267   0.00296   3.10021
   D19       -3.13171   0.00002  -0.00004   0.00149   0.00145  -3.13026
   D20       -0.03557   0.00005   0.00022   0.00174   0.00196  -0.03361
   D21        0.32971   0.00028  -0.00197   0.02331   0.02135   0.35106
   D22       -2.80415  -0.00023  -0.00196   0.01734   0.01538  -2.78878
   D23       -2.78822   0.00025  -0.00213   0.02291   0.02078  -2.76744
   D24        0.36110  -0.00027  -0.00212   0.01694   0.01481   0.37592
   D25        0.01743  -0.00007  -0.00016  -0.00342  -0.00358   0.01385
   D26       -3.07751  -0.00015  -0.00042  -0.00394  -0.00437  -3.08187
   D27        3.13494  -0.00003   0.00000  -0.00300  -0.00300   3.13194
   D28        0.04000  -0.00010  -0.00026  -0.00353  -0.00378   0.03621
   D29        0.17479   0.00007  -0.00127   0.01458   0.01331   0.18809
   D30       -2.95931  -0.00044  -0.00126   0.00877   0.00751  -2.95180
         Item               Value     Threshold  Converged?
 Maximum Force            0.002285     0.000450     NO 
 RMS     Force            0.000554     0.000300     NO 
 Maximum Displacement     0.045118     0.001800     NO 
 RMS     Displacement     0.011511     0.001200     NO 
 Predicted change in Energy=-3.335953D-05
 Lowest energy point so far.  Saving SCF results.
 GradGradGradGradGradGradGradGradGradGradGradGradGradGradGradGradGradGrad

 Leave Link  103 at Mon Sep 21 10:06:54 2026, MaxMem=  3758096384 cpu:               0.6 elap:               0.1
 (Enter /opt/software/gaussian/16RevA.03/g16/l202.exe)
                          Input orientation:                          
 ---------------------------------------------------------------------
 Center     Atomic      Atomic             Coordinates (Angstroms)
 Number     Number       Type             X           Y           Z
 ---------------------------------------------------------------------
      1          6           0       -0.843095    2.010245   -0.007982
      2          6           0       -1.509583    0.788550    0.022571
      3          6           0        0.611796   -0.373485    0.074152
      4          1           0       -2.595703    0.764570    0.019873
      5          6           0        0.558017    2.050784   -0.016720
      6          6           0       -0.783299   -0.405113    0.061360
      7          1           0       -1.386884    2.949044   -0.026114
      8          6           0        1.211695    3.400579   -0.050443
      9          6           0        1.280818    0.849733    0.033125
     10          1           0        1.179300   -1.298439    0.123299
     11          1           0       -1.304419   -1.358156    0.088892
     12          1           0        2.367695    0.854621    0.083344
     13          8           0        0.647280    4.417364    0.277904
     14          1           0        2.760673    2.595605   -0.864039
     15          8           0        2.503219    3.448506   -0.478453
 ---------------------------------------------------------------------
                    Distance matrix (angstroms):
                    1          2          3          4          5
     1  C    0.000000
     2  C    1.392006   0.000000
     3  C    2.793855   2.419346   0.000000
     4  H    2.150375   1.086387   3.403846   0.000000
     5  C    1.401726   2.422757   2.426567   3.406117   0.000000
     6  C    2.417093   1.397793   1.395512   2.157473   2.799402
     7  H    1.085071   2.164523   3.878656   2.497055   2.142335
     8  C    2.481329   3.772716   3.823475   4.631389   1.500127
     9  C    2.420638   2.791092   1.394824   3.877479   1.402658
    10  H    3.880039   3.405255   1.086285   4.303178   3.409236
    11  H    3.401225   2.157507   2.154454   2.485587   3.885960
    12  H    3.413646   3.878317   2.142780   4.964620   2.171578
    13  O    2.845553   4.229131   4.795311   4.891463   2.386519
    14  H    3.750016   4.720870   3.783301   5.729288   2.422080
    15  O    3.672568   4.840349   4.300055   5.783670   2.439393
                    6          7          8          9         10
     6  C    0.000000
     7  H    3.409155   0.000000
     8  C    4.298348   2.637630   0.000000
     9  C    2.415784   3.395181   2.553150   0.000000
    10  H    2.157234   4.964749   4.702340   2.152459   0.000000
    11  H    1.086561   4.309524   5.384775   3.400196   2.484674
    12  H    3.393548   4.300634   2.799310   1.088047   2.459582
    13  O    5.034852   2.527096   1.208399   3.631705   5.742591
    14  H    4.735019   4.246088   1.925942   2.458239   4.317308
    15  O    5.093425   3.948034   1.361441   2.917122   4.964711
                   11         12         13         14         15
    11  H    0.000000
    12  H    4.287287   0.000000
    13  O    6.099302   3.961164   0.000000
    14  H    5.750241   2.020641   3.014842   0.000000
    15  O    6.158245   2.657485   2.226044   0.970773   0.000000
 Stoichiometry    C7H6O2
 Framework group  C1[X(C7H6O2)]
 Deg. of freedom    39
 Full point group                 C1      NOp   1
 RotChk:  IX=0 Diff= 4.08D-03
 Largest Abelian subgroup         C1      NOp   1
 Largest concise Abelian subgroup C1      NOp   1
                         Standard orientation:                         
 ---------------------------------------------------------------------
 Center     Atomic      Atomic             Coordinates (Angstroms)
 Number     Number       Type             X           Y           Z
 ---------------------------------------------------------------------
      1          6           0       -0.489003   -1.214471    0.114162
      2          6           0       -1.880575   -1.189400    0.138213
      3          6           0       -1.847208    1.214632   -0.131519
      4          1           0       -2.436577   -2.116342    0.247194
      5          6           0        0.237096   -0.022354   -0.014179
      6          6           0       -2.561719    0.025241    0.017738
      7          1           0        0.059719   -2.147168    0.193910
      8          6           0        1.733825   -0.121553   -0.032678
      9          6           0       -0.452638    1.191937   -0.145382
     10          1           0       -2.373473    2.158207   -0.244333
     11          1           0       -3.648022    0.043436    0.032938
     12          1           0        0.085207    2.124714   -0.301897
     13          8           0        2.326038   -1.141698   -0.295005
     14          1           0        1.830715    1.688596    0.617882
     15          8           0        2.429432    1.009743    0.267028
 ---------------------------------------------------------------------
 Rotational constants (GHZ):           3.8276813           1.2109714           0.9336026
 Leave Link  202 at Mon Sep 21 10:06:54 2026, MaxMem=  3758096384 cpu:               0.3 elap:               0.1
 (Enter /opt/software/gaussian/16RevA.03/g16/l301.exe)
 Standard basis: 6-31G(d) (6D, 7F)
 Ernie: Thresh=  0.10000D-02 Tol=  0.10000D-05 Strict=F.
 There are   147 symmetry adapted cartesian basis functions of A   symmetry.
 There are   147 symmetry adapted basis functions of A   symmetry.
   147 basis functions,   276 primitive gaussians,   147 cartesian basis functions
    32 alpha electrons       32 beta electrons
       nuclear repulsion energy       404.0816684037 Hartrees.
 IExCor=  402 DFT=T Ex+Corr=B3LYP ExCW=0 ScaHFX=  0.200000
 ScaDFX=  0.800000  0.720000  1.000000  0.810000 ScalE2=  1.000000  1.000000
 IRadAn=      5 IRanWt=     -1 IRanGd=            0 ICorTp=0 IEmpDi=  4
 NAtoms=   15 NActive=   15 NUniq=   15 SFac= 1.00D+00 NAtFMM=   60 NAOKFM=F Big=F
 Integral buffers will be    131072 words long.
 Raffenetti 2 integral format.
 Two-electron integral symmetry is turned on.
 Leave Link  301 at Mon Sep 21 10:06:54 2026, MaxMem=  3758096384 cpu:               0.5 elap:               0.1
 (Enter /opt/software/gaussian/16RevA.03/g16/l302.exe)
 NPDir=0 NMtPBC=     1 NCelOv=     1 NCel=       1 NClECP=     1 NCelD=      1
         NCelK=      1 NCelE2=     1 NClLst=     1 CellRange=     0.0.
 One-electron integrals computed using PRISM.
 One-electron integral symmetry used in STVInt
 NBasis=   147 RedAO= T EigKep=  4.74D-04  NBF=   147
 NBsUse=   147 1.00D-06 EigRej= -1.00D+00 NBFU=   147
 Precomputing XC quadrature grid using
 IXCGrd= 4 IRadAn=           5 IRanWt=          -1 IRanGd=           0 AccXCQ= 0.00D+00.
 Generated NRdTot=       0 NPtTot=           0 NUsed=           0 NTot=          32
 NSgBfM=   147   147   147   147   147 MxSgAt=    15 MxSgA2=    15.
 Leave Link  302 at Mon Sep 21 10:06:55 2026, MaxMem=  3758096384 cpu:               1.0 elap:               0.1
 (Enter /opt/software/gaussian/16RevA.03/g16/l303.exe)
 DipDrv:  MaxL=1.
 Leave Link  303 at Mon Sep 21 10:06:55 2026, MaxMem=  3758096384 cpu:               0.2 elap:               0.0
 (Enter /opt/software/gaussian/16RevA.03/g16/l401.exe)
 Initial guess from the checkpoint file:  "job.chk"
 B after Tr=     0.000000   -0.000000    0.000000
         Rot=    1.000000   -0.000165    0.000260    0.000111 Ang=  -0.04 deg.
 Guess basis will be translated and rotated to current coordinates.
 JPrj=2 DoOrth=T DoCkMO=T.
 Generating alternative initial guess.
 ExpMin= 1.61D-01 ExpMax= 5.48D+03 ExpMxC= 8.25D+02 IAcc=2 IRadAn=         4 AccDes= 0.00D+00
 Harris functional with IExCor=  402 and IRadAn=       4 diagonalized for initial guess.
 HarFok:  IExCor=  402 AccDes= 0.00D+00 IRadAn=         4 IDoV= 1 UseB2=F ITyADJ=14
 ICtDFT=  3500011 ScaDFX=  1.000000  1.000000  1.000000  1.000000
 FoFCou: FMM=F IPFlag=           0 FMFlag=      100000 FMFlg1=           0
         NFxFlg=           0 DoJE=T BraDBF=F KetDBF=T FulRan=T
         wScrn=  0.000000 ICntrl=       500 IOpCl=  0 I1Cent=   200000004 NGrid=           0
         NMat0=    1 NMatS0=      1 NMatT0=    0 NMatD0=    1 NMtDS0=    0 NMtDT0=    0
 Petite list used in FoFCou.
 Harris En= -420.838665413710    
 Leave Link  401 at Mon Sep 21 10:06:55 2026, MaxMem=  3758096384 cpu:               2.4 elap:               0.3
 (Enter /opt/software/gaussian/16RevA.03/g16/l502.exe)
 Integral symmetry usage will be decided dynamically.
 Closed shell SCF:
 Using DIIS extrapolation, IDIIS=  1040.
 NGot=  3758096384 LenX=  3758050306 LenY=  3758028256
 Requested convergence on RMS density matrix=1.00D-08 within 128 cycles.
 Requested convergence on MAX density matrix=1.00D-06.
 Requested convergence on             energy=1.00D-06.
 No special actions if energy rises.
 Fock matrices will be formed incrementally for  20 cycles.
 Integral accuracy reduced to 1.0D-05 until final iterations.

 Cycle   1  Pass 0  IDiag  1:
 FoFJK:  IHMeth= 1 ICntrl=       0 DoSepK=F KAlg= 0 I1Cent=           0 FoldK=F
 IRaf= 950000000 NMat=       1 IRICut=       1 DoRegI=T DoRafI=F ISym2E= 0 IDoP0=0 IntGTp=1.
 FoFCou: FMM=F IPFlag=           0 FMFlag=      100000 FMFlg1=           0
         NFxFlg=           0 DoJE=F BraDBF=F KetDBF=F FulRan=T
         wScrn=  0.000000 ICntrl=         0 IOpCl=  0 I1Cent=           0 NGrid=           0
         NMat0=    1 NMatS0=      1 NMatT0=    0 NMatD0=    1 NMtDS0=    0 NMtDT0=    0
 Symmetry not used in FoFCou.
 E= -420.810221064976    
 DIIS: error= 9.53D-04 at cycle   1 NSaved=   1.
 NSaved= 1 IEnMin= 1 EnMin= -420.810221064976     IErMin= 1 ErrMin= 9.53D-04
 ErrMax= 9.53D-04  0.00D+00 EMaxC= 1.00D-01 BMatC= 1.85D-04 BMatP= 1.85D-04
 IDIUse=3 WtCom= 9.90D-01 WtEn= 9.53D-03
 Coeff-Com:  0.100D+01
 Coeff-En:   0.100D+01
 Coeff:      0.100D+01
 Gap=     1.912 Goal=   None    Shift=    0.000
 RMSDP=1.73D-04 MaxDP=3.36D-03              OVMax= 6.44D-03

 Cycle   2  Pass 0  IDiag  1:
 RMSU=  1.73D-04    CP:  1.00D+00
 E= -420.810560834497     Delta-E=       -0.000339769521 Rises=F Damp=F
 DIIS: error= 1.23D-04 at cycle   2 NSaved=   2.
 NSaved= 2 IEnMin= 2 EnMin= -420.810560834497     IErMin= 2 ErrMin= 1.23D-04
 ErrMax= 1.23D-04  0.00D+00 EMaxC= 1.00D-01 BMatC= 3.17D-06 BMatP= 1.85D-04
 IDIUse=3 WtCom= 9.99D-01 WtEn= 1.23D-03
 Coeff-Com: -0.623D-01 0.106D+01
 Coeff-En:   0.000D+00 0.100D+01
 Coeff:     -0.622D-01 0.106D+01
 Gap=     0.214 Goal=   None    Shift=    0.000
 RMSDP=2.71D-05 MaxDP=4.16D-04 DE=-3.40D-04 OVMax= 8.84D-04

 Cycle   3  Pass 0  IDiag  1:
 RMSU=  2.49D-05    CP:  1.00D+00  1.06D+00
 E= -420.810563428188     Delta-E=       -0.000002593691 Rises=F Damp=F
 DIIS: error= 1.21D-04 at cycle   3 NSaved=   3.
 NSaved= 3 IEnMin= 3 EnMin= -420.810563428188     IErMin= 3 ErrMin= 1.21D-04
 ErrMax= 1.21D-04  0.00D+00 EMaxC= 1.00D-01 BMatC= 2.76D-06 BMatP= 3.17D-06
 IDIUse=3 WtCom= 9.99D-01 WtEn= 1.21D-03
 Coeff-Com: -0.414D-01 0.550D+00 0.492D+00
 Coeff-En:   0.000D+00 0.137D+00 0.863D+00
 Coeff:     -0.414D-01 0.549D+00 0.492D+00
 Gap=     0.214 Goal=   None    Shift=    0.000
 RMSDP=1.58D-05 MaxDP=3.70D-04 DE=-2.59D-06 OVMax= 8.23D-04

 Cycle   4  Pass 0  IDiag  1:
 RMSU=  1.06D-05    CP:  1.00D+00  1.08D+00  5.45D-01
 E= -420.810565645911     Delta-E=       -0.000002217724 Rises=F Damp=F
 DIIS: error= 5.68D-05 at cycle   4 NSaved=   4.
 NSaved= 4 IEnMin= 4 EnMin= -420.810565645911     IErMin= 4 ErrMin= 5.68D-05
 ErrMax= 5.68D-05  0.00D+00 EMaxC= 1.00D-01 BMatC= 5.36D-07 BMatP= 2.76D-06
 IDIUse=1 WtCom= 1.00D+00 WtEn= 0.00D+00
 Coeff-Com: -0.140D-01 0.156D+00 0.312D+00 0.546D+00
 Coeff:     -0.140D-01 0.156D+00 0.312D+00 0.546D+00
 Gap=     0.214 Goal=   None    Shift=    0.000
 RMSDP=5.48D-06 MaxDP=9.95D-05 DE=-2.22D-06 OVMax= 2.95D-04

 Initial convergence to 1.0D-05 achieved.  Increase integral accuracy.
 Cycle   5  Pass 1  IDiag  1:
 E= -420.810566081268     Delta-E=       -0.000000435357 Rises=F Damp=F
 DIIS: error= 1.08D-05 at cycle   1 NSaved=   1.
 NSaved= 1 IEnMin= 1 EnMin= -420.810566081268     IErMin= 1 ErrMin= 1.08D-05
 ErrMax= 1.08D-05  0.00D+00 EMaxC= 1.00D-01 BMatC= 3.68D-08 BMatP= 3.68D-08
 IDIUse=1 WtCom= 1.00D+00 WtEn= 0.00D+00
 Coeff-Com:  0.100D+01
 Coeff:      0.100D+01
 Gap=     0.214 Goal=   None    Shift=    0.000
 RMSDP=5.48D-06 MaxDP=9.95D-05 DE=-4.35D-07 OVMax= 1.25D-04

 Cycle   6  Pass 1  IDiag  1:
 RMSU=  6.01D-06    CP:  1.00D+00
 E= -420.810566044859     Delta-E=        0.000000036409 Rises=F Damp=F
 DIIS: error= 2.25D-05 at cycle   2 NSaved=   2.
 NSaved= 2 IEnMin= 1 EnMin= -420.810566081268     IErMin= 1 ErrMin= 1.08D-05
 ErrMax= 2.25D-05  0.00D+00 EMaxC= 1.00D-01 BMatC= 7.91D-08 BMatP= 3.68D-08
 IDIUse=1 WtCom= 1.00D+00 WtEn= 0.00D+00
 Coeff-Com:  0.609D+00 0.391D+00
 Coeff:      0.609D+00 0.391D+00
 Gap=     0.214 Goal=   None    Shift=    0.000
 RMSDP=2.15D-06 MaxDP=7.66D-05 DE= 3.64D-08 OVMax= 9.77D-05

 Cycle   7  Pass 1  IDiag  1:
 RMSU=  1.88D-06    CP:  1.00D+00  8.26D-01
 E= -420.810566108554     Delta-E=       -0.000000063695 Rises=F Damp=F
 DIIS: error= 5.19D-06 at cycle   3 NSaved=   3.
 NSaved= 3 IEnMin= 3 EnMin= -420.810566108554     IErMin= 3 ErrMin= 5.19D-06
 ErrMax= 5.19D-06  0.00D+00 EMaxC= 1.00D-01 BMatC= 5.15D-09 BMatP= 3.68D-08
 IDIUse=1 WtCom= 1.00D+00 WtEn= 0.00D+00
 Coeff-Com:  0.123D+00 0.210D+00 0.667D+00
 Coeff:      0.123D+00 0.210D+00 0.667D+00
 Gap=     0.214 Goal=   None    Shift=    0.000
 RMSDP=5.56D-07 MaxDP=1.80D-05 DE=-6.37D-08 OVMax= 3.27D-05

 Cycle   8  Pass 1  IDiag  1:
 RMSU=  4.38D-07    CP:  1.00D+00  8.53D-01  8.40D-01
 E= -420.810566111548     Delta-E=       -0.000000002993 Rises=F Damp=F
 DIIS: error= 2.20D-06 at cycle   4 NSaved=   4.
 NSaved= 4 IEnMin= 4 EnMin= -420.810566111548     IErMin= 4 ErrMin= 2.20D-06
 ErrMax= 2.20D-06  0.00D+00 EMaxC= 1.00D-01 BMatC= 1.25D-09 BMatP= 5.15D-09
 IDIUse=1 WtCom= 1.00D+00 WtEn= 0.00D+00
 Coeff-Com:  0.358D-02 0.861D-01 0.422D+00 0.489D+00
 Coeff:      0.358D-02 0.861D-01 0.422D+00 0.489D+00
 Gap=     0.214 Goal=   None    Shift=    0.000
 RMSDP=2.42D-07 MaxDP=6.15D-06 DE=-2.99D-09 OVMax= 1.04D-05

 Cycle   9  Pass 1  IDiag  1:
 RMSU=  1.06D-07    CP:  1.00D+00  8.60D-01  8.46D-01  5.14D-01
 E= -420.810566112602     Delta-E=       -0.000000001054 Rises=F Damp=F
 DIIS: error= 6.42D-07 at cycle   5 NSaved=   5.
 NSaved= 5 IEnMin= 5 EnMin= -420.810566112602     IErMin= 5 ErrMin= 6.42D-07
 ErrMax= 6.42D-07  0.00D+00 EMaxC= 1.00D-01 BMatC= 4.36D-11 BMatP= 1.25D-09
 IDIUse=1 WtCom= 1.00D+00 WtEn= 0.00D+00
 Coeff-Com: -0.352D-02 0.375D-01 0.198D+00 0.266D+00 0.502D+00
 Coeff:     -0.352D-02 0.375D-01 0.198D+00 0.266D+00 0.502D+00
 Gap=     0.214 Goal=   None    Shift=    0.000
 RMSDP=5.97D-08 MaxDP=1.19D-06 DE=-1.05D-09 OVMax= 3.06D-06

 Cycle  10  Pass 1  IDiag  1:
 RMSU=  3.22D-08    CP:  1.00D+00  8.60D-01  8.46D-01  5.31D-01  5.33D-01
 E= -420.810566112643     Delta-E=       -0.000000000041 Rises=F Damp=F
 DIIS: error= 2.57D-07 at cycle   6 NSaved=   6.
 NSaved= 6 IEnMin= 6 EnMin= -420.810566112643     IErMin= 6 ErrMin= 2.57D-07
 ErrMax= 2.57D-07  0.00D+00 EMaxC= 1.00D-01 BMatC= 4.63D-12 BMatP= 4.36D-11
 IDIUse=1 WtCom= 1.00D+00 WtEn= 0.00D+00
 Coeff-Com: -0.243D-02 0.176D-01 0.950D-01 0.134D+00 0.311D+00 0.445D+00
 Coeff:     -0.243D-02 0.176D-01 0.950D-01 0.134D+00 0.311D+00 0.445D+00
 Gap=     0.214 Goal=   None    Shift=    0.000
 RMSDP=1.72D-08 MaxDP=4.01D-07 DE=-4.14D-11 OVMax= 9.27D-07

 Cycle  11  Pass 1  IDiag  1:
 RMSU=  1.04D-08    CP:  1.00D+00  8.60D-01  8.46D-01  5.29D-01  5.79D-01
                    CP:  6.12D-01
 E= -420.810566112648     Delta-E=       -0.000000000004 Rises=F Damp=F
 DIIS: error= 2.80D-08 at cycle   7 NSaved=   7.
 NSaved= 7 IEnMin= 7 EnMin= -420.810566112648     IErMin= 7 ErrMin= 2.80D-08
 ErrMax= 2.80D-08  0.00D+00 EMaxC= 1.00D-01 BMatC= 1.50D-13 BMatP= 4.63D-12
 IDIUse=1 WtCom= 1.00D+00 WtEn= 0.00D+00
 Coeff-Com: -0.250D-03-0.334D-03-0.101D-02 0.121D-02 0.257D-01 0.152D+00
 Coeff-Com:  0.823D+00
 Coeff:     -0.250D-03-0.334D-03-0.101D-02 0.121D-02 0.257D-01 0.152D+00
 Coeff:      0.823D+00
 Gap=     0.214 Goal=   None    Shift=    0.000
 RMSDP=3.56D-09 MaxDP=7.65D-08 DE=-4.43D-12 OVMax= 1.29D-07

 SCF Done:  E(RB3LYP) =  -420.810566113     A.U. after   11 cycles
            NFock= 11  Conv=0.36D-08     -V/T= 2.0093
 KE= 4.169261957986D+02 PE=-1.788733208964D+03 EE= 5.469147786492D+02
 Leave Link  502 at Mon Sep 21 10:07:00 2026, MaxMem=  3758096384 cpu:              34.7 elap:               4.4
 (Enter /opt/software/gaussian/16RevA.03/g16/l701.exe)
 ... and contract with generalized density number  0.
 Compute integral first derivatives.
 Leave Link  701 at Mon Sep 21 10:07:00 2026, MaxMem=  3758096384 cpu:               0.6 elap:               0.1
 (Enter /opt/software/gaussian/16RevA.03/g16/l702.exe)
 L702 exits ... SP integral derivatives will be done elsewhere.
 Leave Link  702 at Mon Sep 21 10:07:00 2026, MaxMem=  3758096384 cpu:               0.1 elap:               0.0
 (Enter /opt/software/gaussian/16RevA.03/g16/l703.exe)
 Integral derivatives from FoFJK, PRISM(SPDF).
 Compute integral first derivatives, UseDBF=F ICtDFT=           0.
 Calling FoFJK, ICntrl=      2127 FMM=F ISym2X=0 I1Cent= 0 IOpClX= 0 NMat=1 NMatS=1 NMatT=0.
 FoFJK:  IHMeth= 1 ICntrl=    2127 DoSepK=F KAlg= 0 I1Cent=           0 FoldK=F
 IRaf=         0 NMat=       1 IRICut=       1 DoRegI=T DoRafI=F ISym2E= 0 IDoP0=0 IntGTp=1.
 FoFCou: FMM=F IPFlag=           0 FMFlag=      100000 FMFlg1=         800
         NFxFlg=           0 DoJE=F BraDBF=F KetDBF=F FulRan=T
         wScrn=  0.000000 ICntrl=      2127 IOpCl=  0 I1Cent=           0 NGrid=           0
         NMat0=    1 NMatS0=      1 NMatT0=    0 NMatD0=    1 NMtDS0=    0 NMtDT0=    0
 Symmetry not used in FoFCou.
 Leave Link  703 at Mon Sep 21 10:07:01 2026, MaxMem=  3758096384 cpu:               9.4 elap:               1.2
 (Enter /opt/software/gaussian/16RevA.03/g16/l716.exe)
 Dipole        =-1.60175741D+00 9.07283487D-01 3.66131751D-01
 ***** Axes restored to original set *****
 -------------------------------------------------------------------
 Center     Atomic                   Forces (Hartrees/Bohr)
 Number     Number              X              Y              Z
 -------------------------------------------------------------------
      1        6          -0.000028679    0.000106984    0.000131207
      2        6          -0.000038005   -0.000148638   -0.000011073
      3        6           0.000111891    0.000201293   -0.000041794
      4        1           0.000022856    0.000033166   -0.000027574
      5        6           0.000270752   -0.000341669   -0.000398345
      6        6          -0.000287841   -0.000083689   -0.000013121
      7        1           0.000022197   -0.000099448    0.000001658
      8        6          -0.001008638   -0.000180663    0.000141933
      9        6           0.000050883    0.000077246    0.000120630
     10        1           0.000017221    0.000031867    0.000008918
     11        1           0.000000512   -0.000000805    0.000021031
     12        1           0.000042420    0.000184343   -0.000006504
     13        8           0.000764578   -0.000004832   -0.000030080
     14        1          -0.000255854   -0.000176941    0.000242691
     15        8           0.000315706    0.000401786   -0.000139579
 -------------------------------------------------------------------
 Cartesian Forces:  Max     0.001008638 RMS     0.000245498
 Leave Link  716 at Mon Sep 21 10:07:01 2026, MaxMem=  3758096384 cpu:               0.2 elap:               0.0
 (Enter /opt/software/gaussian/16RevA.03/g16/l103.exe)

 GradGradGradGradGradGradGradGradGradGradGradGradGradGradGradGradGradGrad
 Berny optimization.
 Using GEDIIS/GDIIS optimizer.
 FormGI is forming the generalized inverse of G from B-inverse, IUseBI=4.
 Internal  Forces:  Max     0.000977473 RMS     0.000205085
 Search for a local minimum.
 Step number  18 out of a maximum of   77
 All quantities printed in internal units (Hartrees-Bohrs-Radians)
 RMS Force = .20509D-03 SwitMx=.10000D-02 MixMth= 2
 Mixed Optimization -- En-DIIS/RFO-DIIS
 Swapping is turned off.
 Update second derivatives using D2CorX and points   10    9   11    8   13
                                                     12   14   15   16   17
                                                     18
 DE= -4.20D-05 DEPred=-3.34D-05 R= 1.26D+00
 TightC=F SS=  1.41D+00  RLast= 4.36D-02 DXNew= 8.4090D-02 1.3081D-01
 Trust test= 1.26D+00 RLast= 4.36D-02 DXMaxT set to 8.41D-02
 ITU=  1  0  1  0 -1 -1  0  0 -1 -1  0  1  1  1 -1  1  1  0
     Eigenvalues ---    0.00471   0.01624   0.01998   0.02112   0.02133
     Eigenvalues ---    0.02159   0.02178   0.02184   0.02185   0.02191
     Eigenvalues ---    0.02318   0.06495   0.15120   0.15234   0.15921
     Eigenvalues ---    0.16005   0.16094   0.17627   0.21769   0.21888
     Eigenvalues ---    0.22466   0.23136   0.26905   0.28554   0.35044
     Eigenvalues ---    0.35082   0.35107   0.35110   0.35622   0.36791
     Eigenvalues ---    0.40304   0.42339   0.43005   0.46123   0.46353
     Eigenvalues ---    0.46786   0.52938   0.54138   0.99991
 En-DIIS/RFO-DIIS/Sim-DIIS IScMMF=       -3 using points:    18   17
 RFO step:  Lambda=-1.20124220D-05.
 NNeg= 0 NGDIIS= 2 SimSw=  2.50D-03 Rises=F DC= -4.20D-05 SmlDif=  1.00D-05
 NRisDI= 0 DoIntr=F SqrtH=F CThrHd= 10.0 CDAdj=  3.0
 RMS Error=  0.2239460245D-02 NUsed= 2 OKEnD=T EnDIS=F
 InvSVX:  RCond= 4.73D-04 Info=           0 Equed=N FErr=  1.80D-15 BErr=  2.88D-17
 DidBck=F Rises=F RFO-DIIS coefs:    1.31950   -0.31950
 Iteration  1 RMS(Cart)=  0.00445840 RMS(Int)=  0.00001345
 Iteration  2 RMS(Cart)=  0.00001657 RMS(Int)=  0.00000137
 Iteration  3 RMS(Cart)=  0.00000000 RMS(Int)=  0.00000137
 ITry= 1 IFail=0 DXMaxC= 1.70D-02 DCOld= 1.00D+10 DXMaxT= 8.41D-02 DXLimC= 3.00D+00 Rises=F
 Variable       Old X    -DE/DX   Delta X   Delta X   Delta X     New X
                                 (Linear)    (Quad)   (Total)
    R1        2.63051   0.00011   0.00006   0.00018   0.00025   2.63076
    R2        2.64888   0.00007   0.00012  -0.00015  -0.00002   2.64885
    R3        2.05049  -0.00010  -0.00014  -0.00001  -0.00015   2.05034
    R4        2.05297  -0.00002   0.00001  -0.00006  -0.00006   2.05292
    R5        2.64145  -0.00004  -0.00018   0.00006  -0.00012   2.64133
    R6        2.63714   0.00024   0.00037   0.00017   0.00054   2.63767
    R7        2.63584  -0.00006  -0.00018  -0.00009  -0.00028   2.63556
    R8        2.05278  -0.00002  -0.00005   0.00001  -0.00004   2.05275
    R9        2.83483  -0.00005  -0.00073   0.00007  -0.00065   2.83417
   R10        2.65064  -0.00034  -0.00006  -0.00034  -0.00040   2.65024
   R11        2.05330   0.00000   0.00007  -0.00006   0.00001   2.05332
   R12        2.28354  -0.00037  -0.00023  -0.00029  -0.00052   2.28302
   R13        2.57275   0.00003   0.00171  -0.00024   0.00147   2.57422
   R14        2.05611   0.00004  -0.00008   0.00007  -0.00001   2.05610
   R15        1.83450  -0.00001   0.00024  -0.00013   0.00012   1.83461
    A1        2.09914  -0.00002  -0.00040   0.00013  -0.00027   2.09887
    A2        2.11736  -0.00002   0.00042  -0.00049  -0.00007   2.11729
    A3        2.06668   0.00004  -0.00002   0.00036   0.00034   2.06702
    A4        2.09208  -0.00002   0.00020  -0.00029  -0.00008   2.09200
    A5        2.09591  -0.00003  -0.00011   0.00003  -0.00008   2.09583
    A6        2.09519   0.00005  -0.00010   0.00026   0.00016   2.09535
    A7        2.09337   0.00009   0.00001   0.00030   0.00030   2.09367
    A8        2.09831  -0.00001  -0.00017  -0.00001  -0.00018   2.09813
    A9        2.09148  -0.00008   0.00016  -0.00029  -0.00013   2.09136
   A10        2.05073   0.00040   0.00098   0.00048   0.00146   2.05219
   A11        2.08300   0.00011   0.00071  -0.00011   0.00060   2.08360
   A12        2.14923  -0.00050  -0.00169  -0.00045  -0.00214   2.14709
   A13        2.09479  -0.00011   0.00028  -0.00041  -0.00013   2.09465
   A14        2.09501   0.00005  -0.00028   0.00037   0.00010   2.09510
   A15        2.09337   0.00005  -0.00000   0.00003   0.00003   2.09340
   A16        2.15014   0.00098   0.00192   0.00143   0.00334   2.15348
   A17        2.03993  -0.00050  -0.00194  -0.00041  -0.00235   2.03758
   A18        2.09312  -0.00047   0.00003  -0.00102  -0.00099   2.09213
   A19        2.09995  -0.00004  -0.00048   0.00001  -0.00047   2.09947
   A20        2.07340   0.00021   0.00181  -0.00000   0.00181   2.07521
   A21        2.10895  -0.00017  -0.00132   0.00000  -0.00132   2.10762
   A22        1.92360  -0.00063  -0.00142  -0.00167  -0.00309   1.92051
    D1       -3.13171   0.00003  -0.00027   0.00179   0.00152  -3.13019
    D2        0.01376   0.00003  -0.00012   0.00181   0.00169   0.01545
    D3        0.00927   0.00000   0.00034   0.00004   0.00038   0.00965
    D4       -3.12844   0.00001   0.00049   0.00006   0.00055  -3.12789
    D5        3.14127   0.00001   0.00067   0.00029   0.00097  -3.14095
    D6       -0.02251  -0.00005   0.00081  -0.00357  -0.00276  -0.02527
    D7        0.00027   0.00003   0.00008   0.00199   0.00207   0.00235
    D8        3.11968  -0.00003   0.00022  -0.00187  -0.00165   3.11802
    D9        0.00384  -0.00000  -0.00026   0.00018  -0.00008   0.00376
   D10        3.13766  -0.00002  -0.00005  -0.00082  -0.00088   3.13678
   D11       -3.13386  -0.00000  -0.00012   0.00020   0.00008  -3.13377
   D12       -0.00004  -0.00001   0.00009  -0.00081  -0.00071  -0.00076
   D13       -0.01248  -0.00001  -0.00007  -0.00037  -0.00044  -0.01292
   D14        3.13689   0.00001  -0.00028   0.00063   0.00035   3.13724
   D15        3.12131  -0.00001   0.00025  -0.00121  -0.00096   3.12035
   D16       -0.01251  -0.00000   0.00004  -0.00021  -0.00017  -0.01268
   D17        0.00356  -0.00001   0.00078  -0.00143  -0.00064   0.00291
   D18        3.10021  -0.00000   0.00095  -0.00130  -0.00035   3.09985
   D19       -3.13026  -0.00000   0.00046  -0.00059  -0.00013  -3.13039
   D20       -0.03361   0.00000   0.00063  -0.00047   0.00016  -0.03345
   D21        0.35106   0.00006   0.00682  -0.00035   0.00647   0.35753
   D22       -2.78878  -0.00009   0.00491  -0.00003   0.00488  -2.78390
   D23       -2.76744   0.00011   0.00664   0.00366   0.01030  -2.75713
   D24        0.37592  -0.00003   0.00473   0.00398   0.00871   0.38463
   D25        0.01385   0.00004  -0.00114   0.00338   0.00224   0.01609
   D26       -3.08187   0.00002  -0.00139   0.00326   0.00186  -3.08001
   D27        3.13194  -0.00001  -0.00096  -0.00069  -0.00165   3.13029
   D28        0.03621  -0.00003  -0.00121  -0.00082  -0.00203   0.03418
   D29        0.18809  -0.00009   0.00425  -0.00504  -0.00079   0.18731
   D30       -2.95180  -0.00024   0.00240  -0.00473  -0.00233  -2.95413
         Item               Value     Threshold  Converged?
 Maximum Force            0.000977     0.000450     NO 
 RMS     Force            0.000205     0.000300     YES
 Maximum Displacement     0.016982     0.001800     NO 
 RMS     Displacement     0.004457     0.001200     NO 
 Predicted change in Energy=-6.007569D-06
 Lowest energy point so far.  Saving SCF results.
 GradGradGradGradGradGradGradGradGradGradGradGradGradGradGradGradGradGrad

 Leave Link  103 at Mon Sep 21 10:07:01 2026, MaxMem=  3758096384 cpu:               0.7 elap:               0.1
 (Enter /opt/software/gaussian/16RevA.03/g16/l202.exe)
                          Input orientation:                          
 ---------------------------------------------------------------------
 Center     Atomic      Atomic             Coordinates (Angstroms)
 Number     Number       Type             X           Y           Z
 ---------------------------------------------------------------------
      1          6           0       -0.843957    2.010347   -0.008750
      2          6           0       -1.509759    0.788099    0.020674
      3          6           0        0.612637   -0.372145    0.075381
      4          1           0       -2.595829    0.763507    0.016426
      5          6           0        0.557129    2.051375   -0.017327
      6          6           0       -0.782694   -0.404981    0.060507
      7          1           0       -1.388354    2.948696   -0.027154
      8          6           0        1.212170    3.400186   -0.048502
      9          6           0        1.280973    0.851298    0.034868
     10          1           0        1.180674   -1.296655    0.126249
     11          1           0       -1.303075   -1.358437    0.087980
     12          1           0        2.367740    0.858796    0.086946
     13          8           0        0.654405    4.418012    0.286891
     14          1           0        2.752846    2.591214   -0.870865
     15          8           0        2.502604    3.445096   -0.482556
 ---------------------------------------------------------------------
                    Distance matrix (angstroms):
                    1          2          3          4          5
     1  C    0.000000
     2  C    1.392138   0.000000
     3  C    2.793745   2.419447   0.000000
     4  H    2.150418   1.086357   3.404033   0.000000
     5  C    1.401713   2.422672   2.425928   3.406008   0.000000
     6  C    2.417097   1.397730   1.395797   2.157491   2.799084
     7  H    1.084992   2.164534   3.878461   2.496987   2.142472
     8  C    2.482114   3.773152   3.821684   4.632186   1.499780
     9  C    2.420872   2.791484   1.394678   3.877840   1.402448
    10  H    3.879899   3.405258   1.086266   4.303291   3.408626
    11  H    3.401301   2.157514   2.154735   2.485756   3.885649
    12  H    3.413243   3.878710   2.143767   4.964985   2.170583
    13  O    2.851200   4.234471   4.795006   4.898222   2.388091
    14  H    3.744014   4.713371   3.775894   5.721549   2.416842
    15  O    3.671848   4.838588   4.295882   5.782208   2.437985
                    6          7          8          9         10
     6  C    0.000000
     7  H    3.409055   0.000000
     8  C    4.297751   2.639512   0.000000
     9  C    2.416116   3.395325   2.551179   0.000000
    10  H    2.157365   4.964519   4.700197   2.152235   0.000000
    11  H    1.086568   4.309516   5.384197   3.400449   2.484812
    12  H    3.394564   4.299877   2.795059   1.088040   2.461024
    13  O    5.037635   2.535819   1.208122   3.630090   5.741096
    14  H    4.727016   4.241365   1.924682   2.452360   4.310625
    15  O    5.090304   3.948843   1.362219   2.913400   4.960076
                   11         12         13         14         15
    11  H    0.000000
    12  H    4.288473   0.000000
    13  O    6.102348   3.955188   0.000000
    14  H    5.741918   2.016676   3.013477   0.000000
    15  O    6.154887   2.651692   2.225860   0.970834   0.000000
 Stoichiometry    C7H6O2
 Framework group  C1[X(C7H6O2)]
 Deg. of freedom    39
 Full point group                 C1      NOp   1
 RotChk:  IX=0 Diff= 1.70D-03
 Largest Abelian subgroup         C1      NOp   1
 Largest concise Abelian subgroup C1      NOp   1
                         Standard orientation:                         
 ---------------------------------------------------------------------
 Center     Atomic      Atomic             Coordinates (Angstroms)
 Number     Number       Type             X           Y           Z
 ---------------------------------------------------------------------
      1          6           0       -0.490289   -1.215455    0.116345
      2          6           0       -1.881960   -1.188669    0.140459
      3          6           0       -1.845218    1.214829   -0.134439
      4          1           0       -2.438969   -2.114745    0.251354
      5          6           0        0.236928   -0.024104   -0.012635
      6          6           0       -2.561537    0.026518    0.017392
      7          1           0        0.057209   -2.148651    0.197575
      8          6           0        1.733332   -0.122666   -0.032689
      9          6           0       -0.450813    1.190644   -0.147755
     10          1           0       -2.370332    2.158671   -0.250162
     11          1           0       -3.647832    0.046142    0.031803
     12          1           0        0.089766    2.121456   -0.306484
     13          8           0        2.329096   -1.138742   -0.301414
     14          1           0        1.823499    1.683569    0.625936
     15          8           0        2.426405    1.009614    0.272652
 ---------------------------------------------------------------------
 Rotational constants (GHZ):           3.8276728           1.2108051           0.9340518
 Leave Link  202 at Mon Sep 21 10:07:01 2026, MaxMem=  3758096384 cpu:               0.3 elap:               0.1
 (Enter /opt/software/gaussian/16RevA.03/g16/l301.exe)
 Standard basis: 6-31G(d) (6D, 7F)
 Ernie: Thresh=  0.10000D-02 Tol=  0.10000D-05 Strict=F.
 There are   147 symmetry adapted cartesian basis functions of A   symmetry.
 There are   147 symmetry adapted basis functions of A   symmetry.
   147 basis functions,   276 primitive gaussians,   147 cartesian basis functions
    32 alpha electrons       32 beta electrons
       nuclear repulsion energy       404.0973656919 Hartrees.
 IExCor=  402 DFT=T Ex+Corr=B3LYP ExCW=0 ScaHFX=  0.200000
 ScaDFX=  0.800000  0.720000  1.000000  0.810000 ScalE2=  1.000000  1.000000
 IRadAn=      5 IRanWt=     -1 IRanGd=            0 ICorTp=0 IEmpDi=  4
 NAtoms=   15 NActive=   15 NUniq=   15 SFac= 1.00D+00 NAtFMM=   60 NAOKFM=F Big=F
 Integral buffers will be    131072 words long.
 Raffenetti 2 integral format.
 Two-electron integral symmetry is turned on.
 Leave Link  301 at Mon Sep 21 10:07:02 2026, MaxMem=  3758096384 cpu:               0.5 elap:               0.1
 (Enter /opt/software/gaussian/16RevA.03/g16/l302.exe)
 NPDir=0 NMtPBC=     1 NCelOv=     1 NCel=       1 NClECP=     1 NCelD=      1
         NCelK=      1 NCelE2=     1 NClLst=     1 CellRange=     0.0.
 One-electron integrals computed using PRISM.
 One-electron integral symmetry used in STVInt
 NBasis=   147 RedAO= T EigKep=  4.74D-04  NBF=   147
 NBsUse=   147 1.00D-06 EigRej= -1.00D+00 NBFU=   147
 Precomputing XC quadrature grid using
 IXCGrd= 4 IRadAn=           5 IRanWt=          -1 IRanGd=           0 AccXCQ= 0.00D+00.
 Generated NRdTot=       0 NPtTot=           0 NUsed=           0 NTot=          32
 NSgBfM=   147   147   147   147   147 MxSgAt=    15 MxSgA2=    15.
 Leave Link  302 at Mon Sep 21 10:07:02 2026, MaxMem=  3758096384 cpu:               1.0 elap:               0.1
 (Enter /opt/software/gaussian/16RevA.03/g16/l303.exe)
 DipDrv:  MaxL=1.
 Leave Link  303 at Mon Sep 21 10:07:02 2026, MaxMem=  3758096384 cpu:               0.2 elap:               0.0
 (Enter /opt/software/gaussian/16RevA.03/g16/l401.exe)
 Initial guess from the checkpoint file:  "job.chk"
 B after Tr=     0.000000    0.000000   -0.000000
         Rot=    1.000000   -0.000104    0.000120    0.000033 Ang=  -0.02 deg.
 Guess basis will be translated and rotated to current coordinates.
 JPrj=2 DoOrth=T DoCkMO=T.
 Leave Link  401 at Mon Sep 21 10:07:02 2026, MaxMem=  3758096384 cpu:               0.8 elap:               0.1
 (Enter /opt/software/gaussian/16RevA.03/g16/l502.exe)
 Integral symmetry usage will be decided dynamically.
 Closed shell SCF:
 Using DIIS extrapolation, IDIIS=  1040.
 NGot=  3758096384 LenX=  3758050306 LenY=  3758028256
 Requested convergence on RMS density matrix=1.00D-08 within 128 cycles.
 Requested convergence on MAX density matrix=1.00D-06.
 Requested convergence on             energy=1.00D-06.
 No special actions if energy rises.
 Fock matrices will be formed incrementally for  20 cycles.

 Cycle   1  Pass 1  IDiag  1:
 FoFJK:  IHMeth= 1 ICntrl=       0 DoSepK=F KAlg= 0 I1Cent=           0 FoldK=F
 IRaf= 950000000 NMat=       1 IRICut=       1 DoRegI=T DoRafI=F ISym2E= 0 IDoP0=0 IntGTp=1.
 FoFCou: FMM=F IPFlag=           0 FMFlag=      100000 FMFlg1=           0
         NFxFlg=           0 DoJE=F BraDBF=F KetDBF=F FulRan=T
         wScrn=  0.000000 ICntrl=         0 IOpCl=  0 I1Cent=           0 NGrid=           0
         NMat0=    1 NMatS0=      1 NMatT0=    0 NMatD0=    1 NMtDS0=    0 NMtDT0=    0
 Symmetry not used in FoFCou.
 E= -420.810516357728    
 DIIS: error= 4.34D-04 at cycle   1 NSaved=   1.
 NSaved= 1 IEnMin= 1 EnMin= -420.810516357728     IErMin= 1 ErrMin= 4.34D-04
 ErrMax= 4.34D-04  0.00D+00 EMaxC= 1.00D-01 BMatC= 3.06D-05 BMatP= 3.06D-05
 IDIUse=3 WtCom= 9.96D-01 WtEn= 4.34D-03
 Coeff-Com:  0.100D+01
 Coeff-En:   0.100D+01
 Coeff:      0.100D+01
 Gap=     1.912 Goal=   None    Shift=    0.000
 RMSDP=7.22D-05 MaxDP=1.52D-03              OVMax= 2.65D-03

 Cycle   2  Pass 1  IDiag  1:
 RMSU=  7.22D-05    CP:  1.00D+00
 E= -420.810572198429     Delta-E=       -0.000055840701 Rises=F Damp=F
 DIIS: error= 5.19D-05 at cycle   2 NSaved=   2.
 NSaved= 2 IEnMin= 2 EnMin= -420.810572198429     IErMin= 2 ErrMin= 5.19D-05
 ErrMax= 5.19D-05  0.00D+00 EMaxC= 1.00D-01 BMatC= 5.82D-07 BMatP= 3.06D-05
 IDIUse=1 WtCom= 1.00D+00 WtEn= 0.00D+00
 Coeff-Com: -0.607D-01 0.106D+01
 Coeff:     -0.607D-01 0.106D+01
 Gap=     0.214 Goal=   None    Shift=    0.000
 RMSDP=1.09D-05 MaxDP=1.74D-04 DE=-5.58D-05 OVMax= 4.20D-04

 Cycle   3  Pass 1  IDiag  1:
 RMSU=  1.02D-05    CP:  1.00D+00  1.05D+00
 E= -420.810572457850     Delta-E=       -0.000000259420 Rises=F Damp=F
 DIIS: error= 7.95D-05 at cycle   3 NSaved=   3.
 NSaved= 3 IEnMin= 3 EnMin= -420.810572457850     IErMin= 2 ErrMin= 5.19D-05
 ErrMax= 7.95D-05  0.00D+00 EMaxC= 1.00D-01 BMatC= 6.34D-07 BMatP= 5.82D-07
 IDIUse=1 WtCom= 1.00D+00 WtEn= 0.00D+00
 Coeff-Com: -0.431D-01 0.579D+00 0.464D+00
 Coeff:     -0.431D-01 0.579D+00 0.464D+00
 Gap=     0.214 Goal=   None    Shift=    0.000
 RMSDP=7.15D-06 MaxDP=1.33D-04 DE=-2.59D-07 OVMax= 3.72D-04

 Cycle   4  Pass 1  IDiag  1:
 RMSU=  4.02D-06    CP:  1.00D+00  1.07D+00  4.36D-01
 E= -420.810572997344     Delta-E=       -0.000000539494 Rises=F Damp=F
 DIIS: error= 3.11D-05 at cycle   4 NSaved=   4.
 NSaved= 4 IEnMin= 4 EnMin= -420.810572997344     IErMin= 4 ErrMin= 3.11D-05
 ErrMax= 3.11D-05  0.00D+00 EMaxC= 1.00D-01 BMatC= 8.31D-08 BMatP= 5.82D-07
 IDIUse=1 WtCom= 1.00D+00 WtEn= 0.00D+00
 Coeff-Com: -0.128D-01 0.147D+00 0.278D+00 0.588D+00
 Coeff:     -0.128D-01 0.147D+00 0.278D+00 0.588D+00
 Gap=     0.214 Goal=   None    Shift=    0.000
 RMSDP=2.16D-06 MaxDP=4.52D-05 DE=-5.39D-07 OVMax= 1.16D-04

 Cycle   5  Pass 1  IDiag  1:
 RMSU=  9.43D-07    CP:  1.00D+00  1.07D+00  5.75D-01  6.70D-01
 E= -420.810573081103     Delta-E=       -0.000000083760 Rises=F Damp=F
 DIIS: error= 4.16D-06 at cycle   5 NSaved=   5.
 NSaved= 5 IEnMin= 5 EnMin= -420.810573081103     IErMin= 5 ErrMin= 4.16D-06
 ErrMax= 4.16D-06  0.00D+00 EMaxC= 1.00D-01 BMatC= 2.30D-09 BMatP= 8.31D-08
 IDIUse=1 WtCom= 1.00D+00 WtEn= 0.00D+00
 Coeff-Com: -0.299D-02 0.283D-01 0.919D-01 0.244D+00 0.638D+00
 Coeff:     -0.299D-02 0.283D-01 0.919D-01 0.244D+00 0.638D+00
 Gap=     0.214 Goal=   None    Shift=    0.000
 RMSDP=4.78D-07 MaxDP=1.10D-05 DE=-8.38D-08 OVMax= 2.31D-05

 Cycle   6  Pass 1  IDiag  1:
 RMSU=  3.46D-07    CP:  1.00D+00  1.07D+00  5.70D-01  7.28D-01  7.58D-01
 E= -420.810573082930     Delta-E=       -0.000000001827 Rises=F Damp=F
 DIIS: error= 2.18D-06 at cycle   6 NSaved=   6.
 NSaved= 6 IEnMin= 6 EnMin= -420.810573082930     IErMin= 6 ErrMin= 2.18D-06
 ErrMax= 2.18D-06  0.00D+00 EMaxC= 1.00D-01 BMatC= 6.60D-10 BMatP= 2.30D-09
 IDIUse=1 WtCom= 1.00D+00 WtEn= 0.00D+00
 Coeff-Com:  0.610D-03-0.117D-01 0.319D-02 0.361D-01 0.377D+00 0.594D+00
 Coeff:      0.610D-03-0.117D-01 0.319D-02 0.361D-01 0.377D+00 0.594D+00
 Gap=     0.214 Goal=   None    Shift=    0.000
 RMSDP=1.88D-07 MaxDP=4.83D-06 DE=-1.83D-09 OVMax= 8.41D-06

 Cycle   7  Pass 1  IDiag  1:
 RMSU=  8.62D-08    CP:  1.00D+00  1.07D+00  5.78D-01  7.26D-01  8.27D-01
                    CP:  6.11D-01
 E= -420.810573083551     Delta-E=       -0.000000000621 Rises=F Damp=F
 DIIS: error= 3.41D-07 at cycle   7 NSaved=   7.
 NSaved= 7 IEnMin= 7 EnMin= -420.810573083551     IErMin= 7 ErrMin= 3.41D-07
 ErrMax= 3.41D-07  0.00D+00 EMaxC= 1.00D-01 BMatC= 2.95D-11 BMatP= 6.60D-10
 IDIUse=1 WtCom= 1.00D+00 WtEn= 0.00D+00
 Coeff-Com:  0.467D-03-0.749D-02-0.369D-02 0.421D-02 0.148D+00 0.289D+00
 Coeff-Com:  0.570D+00
 Coeff:      0.467D-03-0.749D-02-0.369D-02 0.421D-02 0.148D+00 0.289D+00
 Coeff:      0.570D+00
 Gap=     0.214 Goal=   None    Shift=    0.000
 RMSDP=4.64D-08 MaxDP=1.02D-06 DE=-6.21D-10 OVMax= 2.08D-06

 Cycle   8  Pass 1  IDiag  1:
 RMSU=  3.24D-08    CP:  1.00D+00  1.07D+00  5.77D-01  7.28D-01  8.38D-01
                    CP:  6.39D-01  6.78D-01
 E= -420.810573083573     Delta-E=       -0.000000000022 Rises=F Damp=F
 DIIS: error= 1.99D-07 at cycle   8 NSaved=   8.
 NSaved= 8 IEnMin= 8 EnMin= -420.810573083573     IErMin= 8 ErrMin= 1.99D-07
 ErrMax= 1.99D-07  0.00D+00 EMaxC= 1.00D-01 BMatC= 6.98D-12 BMatP= 2.95D-11
 IDIUse=1 WtCom= 1.00D+00 WtEn= 0.00D+00
 Coeff-Com:  0.235D-03-0.357D-02-0.269D-02-0.102D-02 0.565D-01 0.126D+00
 Coeff-Com:  0.363D+00 0.461D+00
 Coeff:      0.235D-03-0.357D-02-0.269D-02-0.102D-02 0.565D-01 0.126D+00
 Coeff:      0.363D+00 0.461D+00
 Gap=     0.214 Goal=   None    Shift=    0.000
 RMSDP=1.98D-08 MaxDP=7.92D-07 DE=-2.18D-11 OVMax= 1.10D-06

 Cycle   9  Pass 1  IDiag  1:
 RMSU=  1.34D-08    CP:  1.00D+00  1.07D+00  5.77D-01  7.28D-01  8.38D-01
                    CP:  6.43D-01  7.20D-01  5.73D-01
 E= -420.810573083577     Delta-E=       -0.000000000004 Rises=F Damp=F
 DIIS: error= 7.66D-08 at cycle   9 NSaved=   9.
 NSaved= 9 IEnMin= 9 EnMin= -420.810573083577     IErMin= 9 ErrMin= 7.66D-08
 ErrMax= 7.66D-08  0.00D+00 EMaxC= 1.00D-01 BMatC= 7.35D-13 BMatP= 6.98D-12
 IDIUse=1 WtCom= 1.00D+00 WtEn= 0.00D+00
 Coeff-Com:  0.375D-04-0.475D-03-0.720D-03-0.135D-02 0.227D-02 0.148D-01
 Coeff-Com:  0.982D-01 0.272D+00 0.615D+00
 Coeff:      0.375D-04-0.475D-03-0.720D-03-0.135D-02 0.227D-02 0.148D-01
 Coeff:      0.982D-01 0.272D+00 0.615D+00
 Gap=     0.214 Goal=   None    Shift=    0.000
 RMSDP=6.34D-09 MaxDP=2.00D-07 DE=-4.32D-12 OVMax= 2.79D-07

 SCF Done:  E(RB3LYP) =  -420.810573084     A.U. after    9 cycles
            NFock=  9  Conv=0.63D-08     -V/T= 2.0093
 KE= 4.169271424085D+02 PE=-1.788761649817D+03 EE= 5.469265686334D+02
 Leave Link  502 at Mon Sep 21 10:07:06 2026, MaxMem=  3758096384 cpu:              35.0 elap:               4.5
 (Enter /opt/software/gaussian/16RevA.03/g16/l701.exe)
 ... and contract with generalized density number  0.
 Compute integral first derivatives.
 Leave Link  701 at Mon Sep 21 10:07:07 2026, MaxMem=  3758096384 cpu:               0.6 elap:               0.1
 (Enter /opt/software/gaussian/16RevA.03/g16/l702.exe)
 L702 exits ... SP integral derivatives will be done elsewhere.
 Leave Link  702 at Mon Sep 21 10:07:07 2026, MaxMem=  3758096384 cpu:               0.1 elap:               0.0
 (Enter /opt/software/gaussian/16RevA.03/g16/l703.exe)
 Integral derivatives from FoFJK, PRISM(SPDF).
 Compute integral first derivatives, UseDBF=F ICtDFT=           0.
 Calling FoFJK, ICntrl=      2127 FMM=F ISym2X=0 I1Cent= 0 IOpClX= 0 NMat=1 NMatS=1 NMatT=0.
 FoFJK:  IHMeth= 1 ICntrl=    2127 DoSepK=F KAlg= 0 I1Cent=           0 FoldK=F
 IRaf=         0 NMat=       1 IRICut=       1 DoRegI=T DoRafI=F ISym2E= 0 IDoP0=0 IntGTp=1.
 FoFCou: FMM=F IPFlag=           0 FMFlag=      100000 FMFlg1=         800
         NFxFlg=           0 DoJE=F BraDBF=F KetDBF=F FulRan=T
         wScrn=  0.000000 ICntrl=      2127 IOpCl=  0 I1Cent=           0 NGrid=           0
         NMat0=    1 NMatS0=      1 NMatT0=    0 NMatD0=    1 NMtDS0=    0 NMtDT0=    0
 Symmetry not used in FoFCou.
 Leave Link  703 at Mon Sep 21 10:07:08 2026, MaxMem=  3758096384 cpu:               9.4 elap:               1.2
 (Enter /opt/software/gaussian/16RevA.03/g16/l716.exe)
 Dipole        =-1.60893435D+00 8.99464372D-01 3.69942058D-01
 ***** Axes restored to original set *****
 -------------------------------------------------------------------
 Center     Atomic                   Forces (Hartrees/Bohr)
 Number     Number              X              Y              Z
 -------------------------------------------------------------------
      1        6           0.000045197    0.000013231   -0.000022925
      2        6          -0.000007163   -0.000035700    0.000002373
      3        6          -0.000013714    0.000010683    0.000005210
      4        1           0.000003169    0.000022217   -0.000000003
      5        6          -0.000048606   -0.000084569   -0.000036595
      6        6          -0.000045782   -0.000049785    0.000008635
      7        1          -0.000011749   -0.000027499    0.000002239
      8        6          -0.000031279    0.000005089    0.000016031
      9        6          -0.000013478    0.000044793   -0.000018934
     10        1           0.000013149    0.000004911    0.000003915
     11        1           0.000016797    0.000007017   -0.000005115
     12        1           0.000006434   -0.000007363    0.000015032
     13        8           0.000194000   -0.000018726    0.000005828
     14        1          -0.000031015   -0.000010820    0.000125809
     15        8          -0.000075959    0.000126521   -0.000101500
 -------------------------------------------------------------------
 Cartesian Forces:  Max     0.000194000 RMS     0.000050115
 Leave Link  716 at Mon Sep 21 10:07:08 2026, MaxMem=  3758096384 cpu:               0.2 elap:               0.0
 (Enter /opt/software/gaussian/16RevA.03/g16/l103.exe)

 GradGradGradGradGradGradGradGradGradGradGradGradGradGradGradGradGradGrad
 Berny optimization.
 Using GEDIIS/GDIIS optimizer.
 FormGI is forming the generalized inverse of G from B-inverse, IUseBI=4.
 Internal  Forces:  Max     0.000175875 RMS     0.000046710
 Search for a local minimum.
 Step number  19 out of a maximum of   77
 All quantities printed in internal units (Hartrees-Bohrs-Radians)
 RMS Force = .46710D-04 SwitMx=.10000D-02 MixMth= 2
 Mixed Optimization -- En-DIIS/RFO-DIIS
 Swapping is turned off.
 Update second derivatives using D2CorX and points   10    9   11    8   13
                                                     12   14   15   16   17
                                                     18   19
 DE= -6.97D-06 DEPred=-6.01D-06 R= 1.16D+00
 TightC=F SS=  1.41D+00  RLast= 1.84D-02 DXNew= 1.4142D-01 5.5070D-02
 Trust test= 1.16D+00 RLast= 1.84D-02 DXMaxT set to 8.41D-02
 ITU=  1  1  0  1  0 -1 -1  0  0 -1 -1  0  1  1  1 -1  1  1  0
     Eigenvalues ---    0.00442   0.01679   0.01951   0.02117   0.02140
     Eigenvalues ---    0.02156   0.02177   0.02183   0.02187   0.02196
     Eigenvalues ---    0.02274   0.06463   0.15025   0.15642   0.15911
     Eigenvalues ---    0.16004   0.16110   0.17633   0.21761   0.21951
     Eigenvalues ---    0.22538   0.23162   0.25583   0.28107   0.34259
     Eigenvalues ---    0.35070   0.35108   0.35111   0.35211   0.35663
     Eigenvalues ---    0.40203   0.42324   0.43061   0.46211   0.46354
     Eigenvalues ---    0.46779   0.51672   0.54189   0.99197
 En-DIIS/RFO-DIIS/Sim-DIIS IScMMF=       -3 using points:    19   18   17
 RFO step:  Lambda=-1.37735591D-06.
 NNeg= 0 NGDIIS= 3 SimSw=  2.50D-01 Rises=F DC= -6.97D-06 SmlDif=  1.00D-05
 NRisDI= 0 DoIntr=F SqrtH=F CThrHd= 10.0 CDAdj=  3.0
 RMS Error=  0.1022983956D-02 NUsed= 3 OKEnD=F EnDIS=F
 InvSVX:  RCond= 1.15D-05 Info=           0 Equed=N FErr=  5.97D-15 BErr=  5.35D-17
 DidBck=F Rises=F RFO-DIIS coefs:    1.30205   -0.29620   -0.00585
 Iteration  1 RMS(Cart)=  0.00117645 RMS(Int)=  0.00000163
 Iteration  2 RMS(Cart)=  0.00000217 RMS(Int)=  0.00000034
 Iteration  3 RMS(Cart)=  0.00000000 RMS(Int)=  0.00000034
 ITry= 1 IFail=0 DXMaxC= 5.22D-03 DCOld= 1.00D+10 DXMaxT= 8.41D-02 DXLimC= 3.00D+00 Rises=F
 Variable       Old X    -DE/DX   Delta X   Delta X   Delta X     New X
                                 (Linear)    (Quad)   (Total)
    R1        2.63076   0.00004   0.00008  -0.00001   0.00007   2.63083
    R2        2.64885  -0.00001  -0.00001   0.00001   0.00000   2.64886
    R3        2.05034  -0.00002  -0.00005  -0.00000  -0.00005   2.05029
    R4        2.05292  -0.00000  -0.00002   0.00000  -0.00002   2.05290
    R5        2.64133   0.00000  -0.00004   0.00006   0.00002   2.64135
    R6        2.63767   0.00001   0.00017  -0.00011   0.00006   2.63773
    R7        2.63556   0.00001  -0.00009   0.00011   0.00002   2.63558
    R8        2.05275   0.00000  -0.00001   0.00002   0.00001   2.05275
    R9        2.83417   0.00012  -0.00021   0.00043   0.00022   2.83440
   R10        2.65024  -0.00003  -0.00012   0.00000  -0.00012   2.65012
   R11        2.05332  -0.00001   0.00001  -0.00004  -0.00004   2.05328
   R12        2.28302  -0.00010  -0.00016   0.00004  -0.00012   2.28290
   R13        2.57422  -0.00011   0.00048  -0.00047   0.00001   2.57423
   R14        2.05610   0.00001  -0.00001   0.00005   0.00004   2.05614
   R15        1.83461  -0.00005   0.00004  -0.00008  -0.00004   1.83457
    A1        2.09887   0.00002  -0.00009   0.00019   0.00010   2.09897
    A2        2.11729  -0.00003  -0.00001  -0.00024  -0.00025   2.11704
    A3        2.06702   0.00001   0.00010   0.00005   0.00015   2.06717
    A4        2.09200  -0.00003  -0.00002  -0.00016  -0.00019   2.09181
    A5        2.09583   0.00001  -0.00003   0.00006   0.00004   2.09586
    A6        2.09535   0.00002   0.00005   0.00010   0.00015   2.09550
    A7        2.09367   0.00002   0.00009   0.00006   0.00015   2.09382
    A8        2.09813   0.00000  -0.00006   0.00010   0.00004   2.09817
    A9        2.09136  -0.00002  -0.00003  -0.00015  -0.00019   2.09117
   A10        2.05219   0.00008   0.00046  -0.00012   0.00034   2.05253
   A11        2.08360  -0.00003   0.00020  -0.00030  -0.00010   2.08350
   A12        2.14709  -0.00005  -0.00068   0.00044  -0.00024   2.14685
   A13        2.09465  -0.00004  -0.00003  -0.00017  -0.00020   2.09445
   A14        2.09510   0.00003   0.00002   0.00015   0.00018   2.09528
   A15        2.09340   0.00001   0.00001   0.00002   0.00002   2.09342
   A16        2.15348   0.00017   0.00104  -0.00028   0.00076   2.15424
   A17        2.03758   0.00001  -0.00075   0.00049  -0.00025   2.03732
   A18        2.09213  -0.00018  -0.00030  -0.00021  -0.00051   2.09162
   A19        2.09947   0.00002  -0.00015   0.00018   0.00002   2.09950
   A20        2.07521  -0.00002   0.00058  -0.00067  -0.00009   2.07512
   A21        2.10762  -0.00000  -0.00042   0.00047   0.00005   2.10767
   A22        1.92051  -0.00010  -0.00096   0.00044  -0.00052   1.91998
    D1       -3.13019  -0.00000   0.00046  -0.00053  -0.00007  -3.13026
    D2        0.01545   0.00000   0.00051  -0.00053  -0.00002   0.01543
    D3        0.00965   0.00000   0.00012  -0.00001   0.00012   0.00977
    D4       -3.12789   0.00000   0.00017  -0.00000   0.00017  -3.12772
    D5       -3.14095   0.00000   0.00030  -0.00014   0.00016  -3.14078
    D6       -0.02527   0.00000  -0.00082   0.00101   0.00019  -0.02508
    D7        0.00235   0.00000   0.00063  -0.00065  -0.00002   0.00233
    D8        3.11802   0.00000  -0.00050   0.00050   0.00000   3.11803
    D9        0.00376  -0.00000  -0.00003  -0.00000  -0.00003   0.00373
   D10        3.13678   0.00000  -0.00027   0.00032   0.00005   3.13683
   D11       -3.13377   0.00000   0.00002  -0.00000   0.00002  -3.13375
   D12       -0.00076   0.00000  -0.00021   0.00032   0.00011  -0.00065
   D13       -0.01292  -0.00000  -0.00014   0.00005  -0.00008  -0.01300
   D14        3.13724  -0.00000   0.00010  -0.00027  -0.00017   3.13707
   D15        3.12035  -0.00000  -0.00029   0.00021  -0.00008   3.12027
   D16       -0.01268  -0.00000  -0.00005  -0.00011  -0.00016  -0.01284
   D17        0.00291   0.00000  -0.00018   0.00043   0.00025   0.00316
   D18        3.09985  -0.00001  -0.00009  -0.00012  -0.00021   3.09964
   D19       -3.13039   0.00000  -0.00003   0.00028   0.00024  -3.13015
   D20       -0.03345  -0.00001   0.00006  -0.00028  -0.00022  -0.03367
   D21        0.35753   0.00002   0.00208   0.00071   0.00279   0.36032
   D22       -2.78390   0.00002   0.00156   0.00148   0.00304  -2.78085
   D23       -2.75713   0.00002   0.00323  -0.00047   0.00276  -2.75437
   D24        0.38463   0.00002   0.00272   0.00030   0.00302   0.38765
   D25        0.01609  -0.00000   0.00066  -0.00096  -0.00030   0.01579
   D26       -3.08001   0.00001   0.00054  -0.00037   0.00017  -3.07984
   D27        3.13029  -0.00000  -0.00052   0.00025  -0.00027   3.13002
   D28        0.03418   0.00001  -0.00063   0.00084   0.00020   0.03439
   D29        0.18731  -0.00009  -0.00016  -0.00401  -0.00417   0.18314
   D30       -2.95413  -0.00009  -0.00066  -0.00327  -0.00393  -2.95805
         Item               Value     Threshold  Converged?
 Maximum Force            0.000176     0.000450     YES
 RMS     Force            0.000047     0.000300     YES
 Maximum Displacement     0.005221     0.001800     NO 
 RMS     Displacement     0.001176     0.001200     YES
 Predicted change in Energy=-6.886555D-07
 Lowest energy point so far.  Saving SCF results.
 GradGradGradGradGradGradGradGradGradGradGradGradGradGradGradGradGradGrad

 Leave Link  103 at Mon Sep 21 10:07:08 2026, MaxMem=  3758096384 cpu:               0.6 elap:               0.1
 (Enter /opt/software/gaussian/16RevA.03/g16/l202.exe)
                          Input orientation:                          
 ---------------------------------------------------------------------
 Center     Atomic      Atomic             Coordinates (Angstroms)
 Number     Number       Type             X           Y           Z
 ---------------------------------------------------------------------
      1          6           0       -0.844023    2.010267   -0.009113
      2          6           0       -1.509766    0.787943    0.020186
      3          6           0        0.612680   -0.371951    0.075741
      4          1           0       -2.595830    0.763477    0.015587
      5          6           0        0.557061    2.051530   -0.017158
      6          6           0       -0.782670   -0.405117    0.060403
      7          1           0       -1.388699    2.948420   -0.027647
      8          6           0        1.212395    3.400337   -0.048009
      9          6           0        1.280930    0.851551    0.035216
     10          1           0        1.180956   -1.296299    0.126978
     11          1           0       -1.302848   -1.358665    0.087731
     12          1           0        2.367691    0.859063    0.087871
     13          8           0        0.656368    4.418290    0.289653
     14          1           0        2.751452    2.590355   -0.871587
     15          8           0        2.501815    3.445207   -0.485085
 ---------------------------------------------------------------------
                    Distance matrix (angstroms):
                    1          2          3          4          5
     1  C    0.000000
     2  C    1.392175   0.000000
     3  C    2.793590   2.419342   0.000000
     4  H    2.150331   1.086349   3.404019   0.000000
     5  C    1.401714   2.422772   2.425899   3.406006   0.000000
     6  C    2.417163   1.397741   1.395828   2.157585   2.799287
     7  H    1.084964   2.164396   3.878282   2.496600   2.142546
     8  C    2.482471   3.773515   3.821666   4.632457   1.499898
     9  C    2.420746   2.791461   1.394689   3.877810   1.402384
    10  H    3.879747   3.405210   1.086270   4.303393   3.408516
    11  H    3.401412   2.157615   2.154761   2.486060   3.885833
    12  H    3.413178   3.878700   2.143737   4.964968   2.170574
    13  O    2.852895   4.236057   4.795214   4.899956   2.388629
    14  H    3.742700   4.711892   3.774524   5.719964   2.415726
    15  O    3.671543   4.838299   4.295818   5.781724   2.437901
                    6          7          8          9         10
     6  C    0.000000
     7  H    3.408994   0.000000
     8  C    4.298083   2.640139   0.000000
     9  C    2.416256   3.395251   2.551066   0.000000
    10  H    2.157420   4.964340   4.700000   2.152132   0.000000
    11  H    1.086548   4.309486   5.384513   3.400547   2.484897
    12  H    3.394654   4.299910   2.794861   1.088062   2.460783
    13  O    5.038715   2.538405   1.208060   3.629937   5.740922
    14  H    4.725619   4.240436   1.924331   2.451156   4.309253
    15  O    5.090225   3.948689   1.362223   2.913473   4.959956
                   11         12         13         14         15
    11  H    0.000000
    12  H    4.288493   0.000000
    13  O    6.103484   3.954420   0.000000
    14  H    5.740418   2.016235   3.013172   0.000000
    15  O    6.154735   2.652246   2.225485   0.970812   0.000000
 Stoichiometry    C7H6O2
 Framework group  C1[X(C7H6O2)]
 Deg. of freedom    39
 Full point group                 C1      NOp   1
 RotChk:  IX=0 Diff= 5.56D-04
 Largest Abelian subgroup         C1      NOp   1
 Largest concise Abelian subgroup C1      NOp   1
                         Standard orientation:                         
 ---------------------------------------------------------------------
 Center     Atomic      Atomic             Coordinates (Angstroms)
 Number     Number       Type             X           Y           Z
 ---------------------------------------------------------------------
      1          6           0       -0.490539   -1.215462    0.117211
      2          6           0       -1.882245   -1.188537    0.141321
      3          6           0       -1.845135    1.214647   -0.135343
      4          1           0       -2.439155   -2.114583    0.252878
      5          6           0        0.236895   -0.024342   -0.012695
      6          6           0       -2.561768    0.026600    0.017347
      7          1           0        0.056630   -2.148770    0.198998
      8          6           0        1.733427   -0.122717   -0.032944
      9          6           0       -0.450720    1.190326   -0.148518
     10          1           0       -2.369975    2.158548   -0.251862
     11          1           0       -3.648038    0.046485    0.031787
     12          1           0        0.089878    2.121000   -0.308135
     13          8           0        2.330068   -1.137676   -0.303659
     14          1           0        1.821951    1.682980    0.626352
     15          8           0        2.426084    1.009083    0.275123
 ---------------------------------------------------------------------
 Rotational constants (GHZ):           3.8282478           1.2104298           0.9340632
 Leave Link  202 at Mon Sep 21 10:07:08 2026, MaxMem=  3758096384 cpu:               0.3 elap:               0.1
 (Enter /opt/software/gaussian/16RevA.03/g16/l301.exe)
 Standard basis: 6-31G(d) (6D, 7F)
 Ernie: Thresh=  0.10000D-02 Tol=  0.10000D-05 Strict=F.
 There are   147 symmetry adapted cartesian basis functions of A   symmetry.
 There are   147 symmetry adapted basis functions of A   symmetry.
   147 basis functions,   276 primitive gaussians,   147 cartesian basis functions
    32 alpha electrons       32 beta electrons
       nuclear repulsion energy       404.0889449982 Hartrees.
 IExCor=  402 DFT=T Ex+Corr=B3LYP ExCW=0 ScaHFX=  0.200000
 ScaDFX=  0.800000  0.720000  1.000000  0.810000 ScalE2=  1.000000  1.000000
 IRadAn=      5 IRanWt=     -1 IRanGd=            0 ICorTp=0 IEmpDi=  4
 NAtoms=   15 NActive=   15 NUniq=   15 SFac= 1.00D+00 NAtFMM=   60 NAOKFM=F Big=F
 Integral buffers will be    131072 words long.
 Raffenetti 2 integral format.
 Two-electron integral symmetry is turned on.
 Leave Link  301 at Mon Sep 21 10:07:08 2026, MaxMem=  3758096384 cpu:               0.5 elap:               0.1
 (Enter /opt/software/gaussian/16RevA.03/g16/l302.exe)
 NPDir=0 NMtPBC=     1 NCelOv=     1 NCel=       1 NClECP=     1 NCelD=      1
         NCelK=      1 NCelE2=     1 NClLst=     1 CellRange=     0.0.
 One-electron integrals computed using PRISM.
 One-electron integral symmetry used in STVInt
 NBasis=   147 RedAO= T EigKep=  4.74D-04  NBF=   147
 NBsUse=   147 1.00D-06 EigRej= -1.00D+00 NBFU=   147
 Precomputing XC quadrature grid using
 IXCGrd= 4 IRadAn=           5 IRanWt=          -1 IRanGd=           0 AccXCQ= 0.00D+00.
 Generated NRdTot=       0 NPtTot=           0 NUsed=           0 NTot=          32
 NSgBfM=   147   147   147   147   147 MxSgAt=    15 MxSgA2=    15.
 Leave Link  302 at Mon Sep 21 10:07:09 2026, MaxMem=  3758096384 cpu:               1.0 elap:               0.1
 (Enter /opt/software/gaussian/16RevA.03/g16/l303.exe)
 DipDrv:  MaxL=1.
 Leave Link  303 at Mon Sep 21 10:07:09 2026, MaxMem=  3758096384 cpu:               0.2 elap:               0.0
 (Enter /opt/software/gaussian/16RevA.03/g16/l401.exe)
 Initial guess from the checkpoint file:  "job.chk"
 B after Tr=    -0.000000   -0.000000    0.000000
         Rot=    1.000000   -0.000043    0.000022   -0.000022 Ang=  -0.01 deg.
 Guess basis will be translated and rotated to current coordinates.
 JPrj=2 DoOrth=T DoCkMO=T.
 Leave Link  401 at Mon Sep 21 10:07:09 2026, MaxMem=  3758096384 cpu:               0.8 elap:               0.1
 (Enter /opt/software/gaussian/16RevA.03/g16/l502.exe)
 Integral symmetry usage will be decided dynamically.
 Closed shell SCF:
 Using DIIS extrapolation, IDIIS=  1040.
 NGot=  3758096384 LenX=  3758050306 LenY=  3758028256
 Requested convergence on RMS density matrix=1.00D-08 within 128 cycles.
 Requested convergence on MAX density matrix=1.00D-06.
 Requested convergence on             energy=1.00D-06.
 No special actions if energy rises.
 Fock matrices will be formed incrementally for  20 cycles.

 Cycle   1  Pass 1  IDiag  1:
 FoFJK:  IHMeth= 1 ICntrl=       0 DoSepK=F KAlg= 0 I1Cent=           0 FoldK=F
 IRaf= 950000000 NMat=       1 IRICut=       1 DoRegI=T DoRafI=F ISym2E= 0 IDoP0=0 IntGTp=1.
 FoFCou: FMM=F IPFlag=           0 FMFlag=      100000 FMFlg1=           0
         NFxFlg=           0 DoJE=F BraDBF=F KetDBF=F FulRan=T
         wScrn=  0.000000 ICntrl=         0 IOpCl=  0 I1Cent=           0 NGrid=           0
         NMat0=    1 NMatS0=      1 NMatT0=    0 NMatD0=    1 NMtDS0=    0 NMtDT0=    0
 Symmetry not used in FoFCou.
 E= -420.810567923432    
 DIIS: error= 1.65D-04 at cycle   1 NSaved=   1.
 NSaved= 1 IEnMin= 1 EnMin= -420.810567923432     IErMin= 1 ErrMin= 1.65D-04
 ErrMax= 1.65D-04  0.00D+00 EMaxC= 1.00D-01 BMatC= 3.22D-06 BMatP= 3.22D-06
 IDIUse=3 WtCom= 9.98D-01 WtEn= 1.65D-03
 Coeff-Com:  0.100D+01
 Coeff-En:   0.100D+01
 Coeff:      0.100D+01
 Gap=     1.912 Goal=   None    Shift=    0.000
 RMSDP=2.31D-05 MaxDP=4.62D-04              OVMax= 8.45D-04

 Cycle   2  Pass 1  IDiag  1:
 RMSU=  2.31D-05    CP:  1.00D+00
 E= -420.810573869460     Delta-E=       -0.000005946028 Rises=F Damp=F
 DIIS: error= 1.72D-05 at cycle   2 NSaved=   2.
 NSaved= 2 IEnMin= 2 EnMin= -420.810573869460     IErMin= 2 ErrMin= 1.72D-05
 ErrMax= 1.72D-05  0.00D+00 EMaxC= 1.00D-01 BMatC= 5.63D-08 BMatP= 3.22D-06
 IDIUse=1 WtCom= 1.00D+00 WtEn= 0.00D+00
 Coeff-Com: -0.684D-01 0.107D+01
 Coeff:     -0.684D-01 0.107D+01
 Gap=     0.214 Goal=   None    Shift=    0.000
 RMSDP=3.25D-06 MaxDP=4.89D-05 DE=-5.95D-06 OVMax= 1.13D-04

 Cycle   3  Pass 1  IDiag  1:
 RMSU=  2.73D-06    CP:  1.00D+00  1.08D+00
 E= -420.810573924811     Delta-E=       -0.000000055351 Rises=F Damp=F
 DIIS: error= 1.48D-05 at cycle   3 NSaved=   3.
 NSaved= 3 IEnMin= 3 EnMin= -420.810573924811     IErMin= 3 ErrMin= 1.48D-05
 ErrMax= 1.48D-05  0.00D+00 EMaxC= 1.00D-01 BMatC= 3.73D-08 BMatP= 5.63D-08
 IDIUse=1 WtCom= 1.00D+00 WtEn= 0.00D+00
 Coeff-Com: -0.401D-01 0.515D+00 0.525D+00
 Coeff:     -0.401D-01 0.515D+00 0.525D+00
 Gap=     0.214 Goal=   None    Shift=    0.000
 RMSDP=1.76D-06 MaxDP=4.27D-05 DE=-5.54D-08 OVMax= 8.26D-05

 Cycle   4  Pass 1  IDiag  1:
 RMSU=  1.19D-06    CP:  1.00D+00  1.09D+00  5.32D-01
 E= -420.810573948009     Delta-E=       -0.000000023198 Rises=F Damp=F
 DIIS: error= 8.11D-06 at cycle   4 NSaved=   4.
 NSaved= 4 IEnMin= 4 EnMin= -420.810573948009     IErMin= 4 ErrMin= 8.11D-06
 ErrMax= 8.11D-06  0.00D+00 EMaxC= 1.00D-01 BMatC= 1.08D-08 BMatP= 3.73D-08
 IDIUse=1 WtCom= 1.00D+00 WtEn= 0.00D+00
 Coeff-Com: -0.138D-01 0.162D+00 0.350D+00 0.502D+00
 Coeff:     -0.138D-01 0.162D+00 0.350D+00 0.502D+00
 Gap=     0.214 Goal=   None    Shift=    0.000
 RMSDP=7.31D-07 MaxDP=2.31D-05 DE=-2.32D-08 OVMax= 3.11D-05

 Cycle   5  Pass 1  IDiag  1:
 RMSU=  3.70D-07    CP:  1.00D+00  1.09D+00  6.66D-01  5.72D-01
 E= -420.810573956760     Delta-E=       -0.000000008751 Rises=F Damp=F
 DIIS: error= 1.51D-06 at cycle   5 NSaved=   5.
 NSaved= 5 IEnMin= 5 EnMin= -420.810573956760     IErMin= 5 ErrMin= 1.51D-06
 ErrMax= 1.51D-06  0.00D+00 EMaxC= 1.00D-01 BMatC= 7.23D-10 BMatP= 1.08D-08
 IDIUse=1 WtCom= 1.00D+00 WtEn= 0.00D+00
 Coeff-Com: -0.470D-02 0.496D-01 0.164D+00 0.295D+00 0.496D+00
 Coeff:     -0.470D-02 0.496D-01 0.164D+00 0.295D+00 0.496D+00
 Gap=     0.214 Goal=   None    Shift=    0.000
 RMSDP=1.92D-07 MaxDP=5.31D-06 DE=-8.75D-09 OVMax= 1.06D-05

 Cycle   6  Pass 1  IDiag  1:
 RMSU=  1.28D-07    CP:  1.00D+00  1.09D+00  6.73D-01  6.47D-01  7.00D-01
 E= -420.810573957311     Delta-E=       -0.000000000551 Rises=F Damp=F
 DIIS: error= 5.54D-07 at cycle   6 NSaved=   6.
 NSaved= 6 IEnMin= 6 EnMin= -420.810573957311     IErMin= 6 ErrMin= 5.54D-07
 ErrMax= 5.54D-07  0.00D+00 EMaxC= 1.00D-01 BMatC= 7.75D-11 BMatP= 7.23D-10
 IDIUse=1 WtCom= 1.00D+00 WtEn= 0.00D+00
 Coeff-Com:  0.517D-03-0.107D-01 0.171D-01 0.605D-01 0.274D+00 0.659D+00
 Coeff:      0.517D-03-0.107D-01 0.171D-01 0.605D-01 0.274D+00 0.659D+00
 Gap=     0.214 Goal=   None    Shift=    0.000
 RMSDP=6.91D-08 MaxDP=1.69D-06 DE=-5.51D-10 OVMax= 3.62D-06

 Cycle   7  Pass 1  IDiag  1:
 RMSU=  4.37D-08    CP:  1.00D+00  1.09D+00  6.78D-01  6.57D-01  7.40D-01
                    CP:  6.28D-01
 E= -420.810573957369     Delta-E=       -0.000000000058 Rises=F Damp=F
 DIIS: error= 2.73D-07 at cycle   7 NSaved=   7.
 NSaved= 7 IEnMin= 7 EnMin= -420.810573957369     IErMin= 7 ErrMin= 2.73D-07
 ErrMax= 2.73D-07  0.00D+00 EMaxC= 1.00D-01 BMatC= 1.16D-11 BMatP= 7.75D-11
 IDIUse=1 WtCom= 1.00D+00 WtEn= 0.00D+00
 Coeff-Com:  0.579D-03-0.955D-02 0.408D-03 0.181D-01 0.131D+00 0.401D+00
 Coeff-Com:  0.459D+00
 Coeff:      0.579D-03-0.955D-02 0.408D-03 0.181D-01 0.131D+00 0.401D+00
 Coeff:      0.459D+00
 Gap=     0.214 Goal=   None    Shift=    0.000
 RMSDP=2.79D-08 MaxDP=7.60D-07 DE=-5.82D-11 OVMax= 1.41D-06

 Cycle   8  Pass 1  IDiag  1:
 RMSU=  1.63D-08    CP:  1.00D+00  1.09D+00  6.79D-01  6.57D-01  7.53D-01
                    CP:  6.84D-01  5.33D-01
 E= -420.810573957377     Delta-E=       -0.000000000008 Rises=F Damp=F
 DIIS: error= 8.27D-08 at cycle   8 NSaved=   8.
 NSaved= 8 IEnMin= 8 EnMin= -420.810573957377     IErMin= 8 ErrMin= 8.27D-08
 ErrMax= 8.27D-08  0.00D+00 EMaxC= 1.00D-01 BMatC= 7.27D-13 BMatP= 1.16D-11
 IDIUse=1 WtCom= 1.00D+00 WtEn= 0.00D+00
 Coeff-Com:  0.191D-03-0.297D-02-0.206D-02 0.136D-03 0.213D-01 0.995D-01
 Coeff-Com:  0.232D+00 0.652D+00
 Coeff:      0.191D-03-0.297D-02-0.206D-02 0.136D-03 0.213D-01 0.995D-01
 Coeff:      0.232D+00 0.652D+00
 Gap=     0.214 Goal=   None    Shift=    0.000
 RMSDP=7.61D-09 MaxDP=1.60D-07 DE=-8.19D-12 OVMax= 4.53D-07

 SCF Done:  E(RB3LYP) =  -420.810573957     A.U. after    8 cycles
            NFock=  8  Conv=0.76D-08     -V/T= 2.0093
 KE= 4.169272393396D+02 PE=-1.788743699291D+03 EE= 5.469169409956D+02
 Leave Link  502 at Mon Sep 21 10:07:13 2026, MaxMem=  3758096384 cpu:              31.0 elap:               4.0
 (Enter /opt/software/gaussian/16RevA.03/g16/l701.exe)
 ... and contract with generalized density number  0.
 Compute integral first derivatives.
 Leave Link  701 at Mon Sep 21 10:07:13 2026, MaxMem=  3758096384 cpu:               0.6 elap:               0.1
 (Enter /opt/software/gaussian/16RevA.03/g16/l702.exe)
 L702 exits ... SP integral derivatives will be done elsewhere.
 Leave Link  702 at Mon Sep 21 10:07:13 2026, MaxMem=  3758096384 cpu:               0.1 elap:               0.0
 (Enter /opt/software/gaussian/16RevA.03/g16/l703.exe)
 Integral derivatives from FoFJK, PRISM(SPDF).
 Compute integral first derivatives, UseDBF=F ICtDFT=           0.
 Calling FoFJK, ICntrl=      2127 FMM=F ISym2X=0 I1Cent= 0 IOpClX= 0 NMat=1 NMatS=1 NMatT=0.
 FoFJK:  IHMeth= 1 ICntrl=    2127 DoSepK=F KAlg= 0 I1Cent=           0 FoldK=F
 IRaf=         0 NMat=       1 IRICut=       1 DoRegI=T DoRafI=F ISym2E= 0 IDoP0=0 IntGTp=1.
 FoFCou: FMM=F IPFlag=           0 FMFlag=      100000 FMFlg1=         800
         NFxFlg=           0 DoJE=F BraDBF=F KetDBF=F FulRan=T
         wScrn=  0.000000 ICntrl=      2127 IOpCl=  0 I1Cent=           0 NGrid=           0
         NMat0=    1 NMatS0=      1 NMatT0=    0 NMatD0=    1 NMtDS0=    0 NMtDT0=    0
 Symmetry not used in FoFCou.
 Leave Link  703 at Mon Sep 21 10:07:14 2026, MaxMem=  3758096384 cpu:               9.5 elap:               1.2
 (Enter /opt/software/gaussian/16RevA.03/g16/l716.exe)
 Dipole        =-1.61073212D+00 8.98626911D-01 3.69628685D-01
 ***** Axes restored to original set *****
 -------------------------------------------------------------------
 Center     Atomic                   Forces (Hartrees/Bohr)
 Number     Number              X              Y              Z
 -------------------------------------------------------------------
      1        6           0.000048093    0.000014391    0.000008320
      2        6           0.000007921   -0.000020657   -0.000003448
      3        6          -0.000011986   -0.000013440   -0.000002121
      4        1          -0.000001950    0.000006961   -0.000002606
      5        6          -0.000090294    0.000005172   -0.000031007
      6        6           0.000003889    0.000004565   -0.000000120
      7        1          -0.000011862    0.000004074    0.000000846
      8        6           0.000095220    0.000036280   -0.000004620
      9        6           0.000006864   -0.000006506    0.000014778
     10        1           0.000002382   -0.000001124    0.000000909
     11        1           0.000005980    0.000003125    0.000001016
     12        1          -0.000001668   -0.000005781    0.000005702
     13        8          -0.000000115   -0.000035997    0.000017762
     14        1           0.000018804    0.000004350    0.000044962
     15        8          -0.000071277    0.000004588   -0.000050374
 -------------------------------------------------------------------
 Cartesian Forces:  Max     0.000095220 RMS     0.000028005
 Leave Link  716 at Mon Sep 21 10:07:14 2026, MaxMem=  3758096384 cpu:               0.2 elap:               0.0
 (Enter /opt/software/gaussian/16RevA.03/g16/l103.exe)

 GradGradGradGradGradGradGradGradGradGradGradGradGradGradGradGradGradGrad
 Berny optimization.
 Using GEDIIS/GDIIS optimizer.
 FormGI is forming the generalized inverse of G from B-inverse, IUseBI=4.
 Internal  Forces:  Max     0.000047791 RMS     0.000014678
 Search for a local minimum.
 Step number  20 out of a maximum of   77
 All quantities printed in internal units (Hartrees-Bohrs-Radians)
 RMS Force = .14678D-04 SwitMx=.10000D-02 MixMth= 2
 Mixed Optimization -- En-DIIS/RFO-DIIS
 Swapping is turned off.
 Update second derivatives using D2CorX and points   10    9   11    8   13
                                                     12   14   15   16   17
                                                     18   19   20
 DE= -8.74D-07 DEPred=-6.89D-07 R= 1.27D+00
 Trust test= 1.27D+00 RLast= 8.31D-03 DXMaxT set to 8.41D-02
 ITU=  0  1  1  0  1  0 -1 -1  0  0 -1 -1  0  1  1  1 -1  1  1  0
     Eigenvalues ---    0.00423   0.01326   0.01695   0.02124   0.02142
     Eigenvalues ---    0.02165   0.02176   0.02183   0.02187   0.02200
     Eigenvalues ---    0.02259   0.06431   0.14953   0.15604   0.15867
     Eigenvalues ---    0.16004   0.16103   0.17980   0.21658   0.21926
     Eigenvalues ---    0.22885   0.23215   0.27849   0.28916   0.34578
     Eigenvalues ---    0.35074   0.35107   0.35110   0.35559   0.35909
     Eigenvalues ---    0.40171   0.42383   0.43010   0.46101   0.46341
     Eigenvalues ---    0.46758   0.53179   0.54620   0.98869
 En-DIIS/RFO-DIIS/Sim-DIIS IScMMF=       -3 using points:    20   19   18   17
 RFO step:  Lambda=-2.99506425D-07.
 NNeg= 0 NGDIIS= 4 SimSw=  2.50D-01 Rises=F DC= -8.74D-07 SmlDif=  1.00D-05
 NRisDI= 0 DoIntr=F SqrtH=F CThrHd= 10.0 CDAdj=  3.0
 RMS Error=  0.5972299272D-03 NUsed= 4 OKEnD=F EnDIS=F
 InvSVX:  RCond= 1.69D-06 Info=           0 Equed=N FErr=  1.82D-14 BErr=  2.20D-17
 DidBck=F Rises=F RFO-DIIS coefs:    1.55457   -0.48947   -0.10621    0.04110
 Iteration  1 RMS(Cart)=  0.00052105 RMS(Int)=  0.00000062
 Iteration  2 RMS(Cart)=  0.00000085 RMS(Int)=  0.00000014
 ITry= 1 IFail=0 DXMaxC= 2.88D-03 DCOld= 1.00D+10 DXMaxT= 8.41D-02 DXLimC= 3.00D+00 Rises=F
 Variable       Old X    -DE/DX   Delta X   Delta X   Delta X     New X
                                 (Linear)    (Quad)   (Total)
    R1        2.63083   0.00001   0.00005  -0.00002   0.00003   2.63085
    R2        2.64886  -0.00004  -0.00002  -0.00005  -0.00007   2.64879
    R3        2.05029   0.00001  -0.00002   0.00003   0.00001   2.05030
    R4        2.05290   0.00000  -0.00001   0.00001   0.00000   2.05290
    R5        2.64135  -0.00000   0.00003  -0.00002   0.00000   2.64135
    R6        2.63773  -0.00002   0.00002  -0.00004  -0.00002   2.63772
    R7        2.63558   0.00000   0.00002   0.00001   0.00003   2.63561
    R8        2.05275   0.00000   0.00001  -0.00000   0.00001   2.05276
    R9        2.83440   0.00003   0.00017  -0.00006   0.00012   2.83451
   R10        2.65012   0.00002  -0.00009   0.00008  -0.00001   2.65011
   R11        2.05328  -0.00001  -0.00003   0.00001  -0.00002   2.05326
   R12        2.28290  -0.00003  -0.00007   0.00005  -0.00002   2.28288
   R13        2.57423  -0.00005  -0.00012  -0.00005  -0.00017   2.57406
   R14        2.05614  -0.00000   0.00003  -0.00000   0.00003   2.05617
   R15        1.83457  -0.00002  -0.00005   0.00002  -0.00002   1.83454
    A1        2.09897  -0.00000   0.00009  -0.00007   0.00002   2.09899
    A2        2.11704  -0.00001  -0.00020   0.00006  -0.00014   2.11690
    A3        2.06717   0.00001   0.00011   0.00001   0.00012   2.06730
    A4        2.09181  -0.00001  -0.00013   0.00003  -0.00010   2.09171
    A5        2.09586   0.00001   0.00003   0.00000   0.00003   2.09590
    A6        2.09550   0.00000   0.00011  -0.00004   0.00007   2.09557
    A7        2.09382  -0.00001   0.00010  -0.00008   0.00002   2.09384
    A8        2.09817   0.00001   0.00003   0.00002   0.00005   2.09822
    A9        2.09117   0.00000  -0.00013   0.00006  -0.00007   2.09110
   A10        2.05253   0.00000   0.00016  -0.00008   0.00008   2.05260
   A11        2.08350  -0.00000  -0.00011   0.00007  -0.00004   2.08346
   A12        2.14685   0.00000  -0.00005   0.00001  -0.00005   2.14680
   A13        2.09445  -0.00000  -0.00016   0.00010  -0.00006   2.09439
   A14        2.09528   0.00000   0.00014  -0.00008   0.00006   2.09534
   A15        2.09342  -0.00000   0.00002  -0.00001   0.00000   2.09342
   A16        2.15424  -0.00005   0.00039  -0.00044  -0.00004   2.15420
   A17        2.03732   0.00004  -0.00004   0.00006   0.00002   2.03734
   A18        2.09162   0.00001  -0.00035   0.00037   0.00002   2.09164
   A19        2.09950   0.00000   0.00004  -0.00002   0.00002   2.09952
   A20        2.07512  -0.00001  -0.00017   0.00006  -0.00010   2.07502
   A21        2.10767   0.00000   0.00011  -0.00003   0.00008   2.10775
   A22        1.91998   0.00002  -0.00031   0.00038   0.00008   1.92006
    D1       -3.13026   0.00000   0.00009   0.00007   0.00016  -3.13011
    D2        0.01543   0.00000   0.00011   0.00008   0.00020   0.01563
    D3        0.00977   0.00000   0.00005  -0.00002   0.00003   0.00979
    D4       -3.12772   0.00000   0.00007  -0.00000   0.00007  -3.12766
    D5       -3.14078  -0.00000   0.00007  -0.00014  -0.00008  -3.14086
    D6       -0.02508  -0.00001  -0.00018  -0.00013  -0.00031  -0.02540
    D7        0.00233   0.00000   0.00011  -0.00006   0.00005   0.00238
    D8        3.11803  -0.00000  -0.00013  -0.00005  -0.00018   3.11784
    D9        0.00373   0.00000   0.00001  -0.00000   0.00001   0.00374
   D10        3.13683  -0.00000  -0.00002  -0.00002  -0.00004   3.13679
   D11       -3.13375   0.00000   0.00003   0.00001   0.00004  -3.13371
   D12       -0.00065  -0.00000   0.00000  -0.00001  -0.00000  -0.00065
   D13       -0.01300  -0.00000  -0.00006  -0.00002  -0.00009  -0.01309
   D14        3.13707   0.00000  -0.00003  -0.00001  -0.00004   3.13703
   D15        3.12027  -0.00000  -0.00014   0.00006  -0.00007   3.12020
   D16       -0.01284  -0.00000  -0.00011   0.00008  -0.00003  -0.01287
   D17        0.00316  -0.00000  -0.00000  -0.00003  -0.00003   0.00313
   D18        3.09964  -0.00000  -0.00026   0.00023  -0.00003   3.09961
   D19       -3.13015  -0.00000   0.00007  -0.00011  -0.00004  -3.13019
   D20       -0.03367  -0.00000  -0.00019   0.00014  -0.00005  -0.03371
   D21        0.36032   0.00000   0.00109   0.00003   0.00112   0.36143
   D22       -2.78085   0.00001   0.00137   0.00007   0.00144  -2.77941
   D23       -2.75437   0.00001   0.00135   0.00001   0.00136  -2.75301
   D24        0.38765   0.00001   0.00163   0.00005   0.00169   0.38933
   D25        0.01579   0.00001   0.00013   0.00010   0.00023   0.01602
   D26       -3.07984   0.00001   0.00040  -0.00016   0.00024  -3.07960
   D27        3.13002   0.00000  -0.00013   0.00012  -0.00002   3.13000
   D28        0.03439   0.00000   0.00014  -0.00014  -0.00001   0.03438
   D29        0.18314  -0.00004  -0.00291  -0.00011  -0.00302   0.18011
   D30       -2.95805  -0.00003  -0.00264  -0.00007  -0.00271  -2.96076
         Item               Value     Threshold  Converged?
 Maximum Force            0.000048     0.000450     YES
 RMS     Force            0.000015     0.000300     YES
 Maximum Displacement     0.002881     0.001800     NO 
 RMS     Displacement     0.000521     0.001200     YES
 Predicted change in Energy=-1.493325D-07
 Lowest energy point so far.  Saving SCF results.
 GradGradGradGradGradGradGradGradGradGradGradGradGradGradGradGradGradGrad

 Leave Link  103 at Mon Sep 21 10:07:14 2026, MaxMem=  3758096384 cpu:               0.7 elap:               0.1
 (Enter /opt/software/gaussian/16RevA.03/g16/l202.exe)
                          Input orientation:                          
 ---------------------------------------------------------------------
 Center     Atomic      Atomic             Coordinates (Angstroms)
 Number     Number       Type             X           Y           Z
 ---------------------------------------------------------------------
      1          6           0       -0.843984    2.010274   -0.009140
      2          6           0       -1.509725    0.787930    0.019997
      3          6           0        0.612675   -0.371930    0.075901
      4          1           0       -2.595791    0.763566    0.015232
      5          6           0        0.557064    2.051570   -0.017167
      6          6           0       -0.782662   -0.405149    0.060303
      7          1           0       -1.388799    2.948353   -0.027677
      8          6           0        1.212498    3.400399   -0.047942
      9          6           0        1.280916    0.851596    0.035440
     10          1           0        1.181026   -1.296228    0.127278
     11          1           0       -1.302807   -1.358707    0.087545
     12          1           0        2.367681    0.859020    0.088339
     13          8           0        0.656849    4.418176    0.290829
     14          1           0        2.751294    2.590056   -0.871560
     15          8           0        2.501275    3.445483   -0.486609
 ---------------------------------------------------------------------
                    Distance matrix (angstroms):
                    1          2          3          4          5
     1  C    0.000000
     2  C    1.392188   0.000000
     3  C    2.793561   2.419294   0.000000
     4  H    2.150280   1.086349   3.404010   0.000000
     5  C    1.401679   2.422764   2.425924   3.405951   0.000000
     6  C    2.417200   1.397742   1.395819   2.157630   2.799346
     7  H    1.084970   2.164330   3.878261   2.496391   2.142595
     8  C    2.482553   3.773607   3.821727   4.632488   1.499961
     9  C    2.420686   2.791410   1.394703   3.877759   1.402379
    10  H    3.879720   3.405197   1.086273   4.303447   3.408510
    11  H    3.401456   2.157644   2.154748   2.486178   3.885882
    12  H    3.413162   3.878660   2.143697   4.964928   2.170631
    13  O    2.853151   4.236281   4.795129   4.900183   2.388649
    14  H    3.742451   4.711562   3.774220   5.719597   2.415492
    15  O    3.671315   4.838115   4.296029   5.781401   2.437893
                    6          7          8          9         10
     6  C    0.000000
     7  H    3.408977   0.000000
     8  C    4.298207   2.640360   0.000000
     9  C    2.416273   3.395254   2.551085   0.000000
    10  H    2.157447   4.964321   4.700000   2.152105   0.000000
    11  H    1.086539   4.309460   5.384627   3.400556   2.484937
    12  H    3.394638   4.299990   2.794929   1.088077   2.460642
    13  O    5.038829   2.538995   1.208048   3.629763   5.740725
    14  H    4.725301   4.240387   1.924292   2.450899   4.308900
    15  O    5.090257   3.948472   1.362134   2.913771   4.960215
                   11         12         13         14         15
    11  H    0.000000
    12  H    4.288449   0.000000
    13  O    6.103602   3.954180   0.000000
    14  H    5.740066   2.016197   3.013283   0.000000
    15  O    6.154749   2.652961   2.225410   0.970799   0.000000
 Stoichiometry    C7H6O2
 Framework group  C1[X(C7H6O2)]
 Deg. of freedom    39
 Full point group                 C1      NOp   1
 RotChk:  IX=0 Diff= 3.07D-04
 Largest Abelian subgroup         C1      NOp   1
 Largest concise Abelian subgroup C1      NOp   1
                         Standard orientation:                         
 ---------------------------------------------------------------------
 Center     Atomic      Atomic             Coordinates (Angstroms)
 Number     Number       Type             X           Y           Z
 ---------------------------------------------------------------------
      1          6           0       -0.490506   -1.215413    0.117477
      2          6           0       -1.882221   -1.188495    0.141771
      3          6           0       -1.845190    1.214544   -0.135751
      4          1           0       -2.439009   -2.114569    0.253703
      5          6           0        0.236903   -0.024349   -0.012714
      6          6           0       -2.561817    0.026570    0.017464
      7          1           0        0.056558   -2.148771    0.199469
      8          6           0        1.733502   -0.122620   -0.033058
      9          6           0       -0.450762    1.190232   -0.149013
     10          1           0       -2.369984    2.158432   -0.252607
     11          1           0       -3.648076    0.046469    0.032006
     12          1           0        0.089724    2.120911   -0.309084
     13          8           0        2.330155   -1.137307   -0.304710
     14          1           0        1.821550    1.683178    0.625911
     15          8           0        2.426067    1.008749    0.276403
 ---------------------------------------------------------------------
 Rotational constants (GHZ):           3.8283933           1.2103173           0.9341013
 Leave Link  202 at Mon Sep 21 10:07:15 2026, MaxMem=  3758096384 cpu:               0.3 elap:               0.1
 (Enter /opt/software/gaussian/16RevA.03/g16/l301.exe)
 Standard basis: 6-31G(d) (6D, 7F)
 Ernie: Thresh=  0.10000D-02 Tol=  0.10000D-05 Strict=F.
 There are   147 symmetry adapted cartesian basis functions of A   symmetry.
 There are   147 symmetry adapted basis functions of A   symmetry.
   147 basis functions,   276 primitive gaussians,   147 cartesian basis functions
    32 alpha electrons       32 beta electrons
       nuclear repulsion energy       404.0883146835 Hartrees.
 IExCor=  402 DFT=T Ex+Corr=B3LYP ExCW=0 ScaHFX=  0.200000
 ScaDFX=  0.800000  0.720000  1.000000  0.810000 ScalE2=  1.000000  1.000000
 IRadAn=      5 IRanWt=     -1 IRanGd=            0 ICorTp=0 IEmpDi=  4
 NAtoms=   15 NActive=   15 NUniq=   15 SFac= 1.00D+00 NAtFMM=   60 NAOKFM=F Big=F
 Integral buffers will be    131072 words long.
 Raffenetti 2 integral format.
 Two-electron integral symmetry is turned on.
 Leave Link  301 at Mon Sep 21 10:07:15 2026, MaxMem=  3758096384 cpu:               0.5 elap:               0.1
 (Enter /opt/software/gaussian/16RevA.03/g16/l302.exe)
 NPDir=0 NMtPBC=     1 NCelOv=     1 NCel=       1 NClECP=     1 NCelD=      1
         NCelK=      1 NCelE2=     1 NClLst=     1 CellRange=     0.0.
 One-electron integrals computed using PRISM.
 One-electron integral symmetry used in STVInt
 NBasis=   147 RedAO= T EigKep=  4.74D-04  NBF=   147
 NBsUse=   147 1.00D-06 EigRej= -1.00D+00 NBFU=   147
 Precomputing XC quadrature grid using
 IXCGrd= 4 IRadAn=           5 IRanWt=          -1 IRanGd=           0 AccXCQ= 0.00D+00.
 Generated NRdTot=       0 NPtTot=           0 NUsed=           0 NTot=          32
 NSgBfM=   147   147   147   147   147 MxSgAt=    15 MxSgA2=    15.
 Leave Link  302 at Mon Sep 21 10:07:15 2026, MaxMem=  3758096384 cpu:               1.0 elap:               0.1
 (Enter /opt/software/gaussian/16RevA.03/g16/l303.exe)
 DipDrv:  MaxL=1.
 Leave Link  303 at Mon Sep 21 10:07:15 2026, MaxMem=  3758096384 cpu:               0.2 elap:               0.0
 (Enter /opt/software/gaussian/16RevA.03/g16/l401.exe)
 Initial guess from the checkpoint file:  "job.chk"
 B after Tr=     0.000000    0.000000   -0.000000
         Rot=    1.000000   -0.000016    0.000001   -0.000011 Ang=  -0.00 deg.
 Guess basis will be translated and rotated to current coordinates.
 JPrj=2 DoOrth=T DoCkMO=T.
 Leave Link  401 at Mon Sep 21 10:07:15 2026, MaxMem=  3758096384 cpu:               0.8 elap:               0.1
 (Enter /opt/software/gaussian/16RevA.03/g16/l502.exe)
 Integral symmetry usage will be decided dynamically.
 Closed shell SCF:
 Using DIIS extrapolation, IDIIS=  1040.
 NGot=  3758096384 LenX=  3758050306 LenY=  3758028256
 Requested convergence on RMS density matrix=1.00D-08 within 128 cycles.
 Requested convergence on MAX density matrix=1.00D-06.
 Requested convergence on             energy=1.00D-06.
 No special actions if energy rises.
 Fock matrices will be formed incrementally for  20 cycles.

 Cycle   1  Pass 1  IDiag  1:
 FoFJK:  IHMeth= 1 ICntrl=       0 DoSepK=F KAlg= 0 I1Cent=           0 FoldK=F
 IRaf= 950000000 NMat=       1 IRICut=       1 DoRegI=T DoRafI=F ISym2E= 0 IDoP0=0 IntGTp=1.
 FoFCou: FMM=F IPFlag=           0 FMFlag=      100000 FMFlg1=           0
         NFxFlg=           0 DoJE=F BraDBF=F KetDBF=F FulRan=T
         wScrn=  0.000000 ICntrl=         0 IOpCl=  0 I1Cent=           0 NGrid=           0
         NMat0=    1 NMatS0=      1 NMatT0=    0 NMatD0=    1 NMtDS0=    0 NMtDT0=    0
 Symmetry not used in FoFCou.
 E= -420.810572557903    
 DIIS: error= 7.74D-05 at cycle   1 NSaved=   1.
 NSaved= 1 IEnMin= 1 EnMin= -420.810572557903     IErMin= 1 ErrMin= 7.74D-05
 ErrMax= 7.74D-05  0.00D+00 EMaxC= 1.00D-01 BMatC= 8.62D-07 BMatP= 8.62D-07
 IDIUse=1 WtCom= 1.00D+00 WtEn= 0.00D+00
 Coeff-Com:  0.100D+01
 Coeff:      0.100D+01
 Gap=     1.912 Goal=   None    Shift=    0.000
 RMSDP=1.25D-05 MaxDP=3.40D-04              OVMax= 4.48D-04

 Cycle   2  Pass 1  IDiag  1:
 RMSU=  1.25D-05    CP:  1.00D+00
 E= -420.810574114345     Delta-E=       -0.000001556443 Rises=F Damp=F
 DIIS: error= 7.17D-06 at cycle   2 NSaved=   2.
 NSaved= 2 IEnMin= 2 EnMin= -420.810574114345     IErMin= 2 ErrMin= 7.17D-06
 ErrMax= 7.17D-06  0.00D+00 EMaxC= 1.00D-01 BMatC= 1.30D-08 BMatP= 8.62D-07
 IDIUse=1 WtCom= 1.00D+00 WtEn= 0.00D+00
 Coeff-Com: -0.714D-01 0.107D+01
 Coeff:     -0.714D-01 0.107D+01
 Gap=     0.214 Goal=   None    Shift=    0.000
 RMSDP=1.76D-06 MaxDP=3.62D-05 DE=-1.56D-06 OVMax= 7.10D-05

 Cycle   3  Pass 1  IDiag  1:
 RMSU=  1.43D-06    CP:  1.00D+00  1.08D+00
 E= -420.810574129626     Delta-E=       -0.000000015280 Rises=F Damp=F
 DIIS: error= 5.48D-06 at cycle   3 NSaved=   3.
 NSaved= 3 IEnMin= 3 EnMin= -420.810574129626     IErMin= 3 ErrMin= 5.48D-06
 ErrMax= 5.48D-06  0.00D+00 EMaxC= 1.00D-01 BMatC= 7.70D-09 BMatP= 1.30D-08
 IDIUse=1 WtCom= 1.00D+00 WtEn= 0.00D+00
 Coeff-Com: -0.405D-01 0.510D+00 0.530D+00
 Coeff:     -0.405D-01 0.510D+00 0.530D+00
 Gap=     0.214 Goal=   None    Shift=    0.000
 RMSDP=8.64D-07 MaxDP=2.56D-05 DE=-1.53D-08 OVMax= 3.95D-05

 Cycle   4  Pass 1  IDiag  1:
 RMSU=  6.66D-07    CP:  1.00D+00  1.09D+00  6.19D-01
 E= -420.810574134036     Delta-E=       -0.000000004411 Rises=F Damp=F
 DIIS: error= 3.83D-06 at cycle   4 NSaved=   4.
 NSaved= 4 IEnMin= 4 EnMin= -420.810574134036     IErMin= 4 ErrMin= 3.83D-06
 ErrMax= 3.83D-06  0.00D+00 EMaxC= 1.00D-01 BMatC= 2.87D-09 BMatP= 7.70D-09
 IDIUse=1 WtCom= 1.00D+00 WtEn= 0.00D+00
 Coeff-Com: -0.148D-01 0.171D+00 0.373D+00 0.471D+00
 Coeff:     -0.148D-01 0.171D+00 0.373D+00 0.471D+00
 Gap=     0.214 Goal=   None    Shift=    0.000
 RMSDP=3.58D-07 MaxDP=1.31D-05 DE=-4.41D-09 OVMax= 2.05D-05

 Cycle   5  Pass 1  IDiag  1:
 RMSU=  1.91D-07    CP:  1.00D+00  1.09D+00  7.03D-01  5.87D-01
 E= -420.810574136363     Delta-E=       -0.000000002326 Rises=F Damp=F
 DIIS: error= 6.53D-07 at cycle   5 NSaved=   5.
 NSaved= 5 IEnMin= 5 EnMin= -420.810574136363     IErMin= 5 ErrMin= 6.53D-07
 ErrMax= 6.53D-07  0.00D+00 EMaxC= 1.00D-01 BMatC= 1.02D-10 BMatP= 2.87D-09
 IDIUse=1 WtCom= 1.00D+00 WtEn= 0.00D+00
 Coeff-Com: -0.291D-02 0.279D-01 0.129D+00 0.229D+00 0.617D+00
 Coeff:     -0.291D-02 0.279D-01 0.129D+00 0.229D+00 0.617D+00
 Gap=     0.214 Goal=   None    Shift=    0.000
 RMSDP=8.68D-08 MaxDP=2.52D-06 DE=-2.33D-09 OVMax= 3.75D-06

 Cycle   6  Pass 1  IDiag  1:
 RMSU=  6.30D-08    CP:  1.00D+00  1.09D+00  7.25D-01  6.28D-01  7.77D-01
 E= -420.810574136431     Delta-E=       -0.000000000068 Rises=F Damp=F
 DIIS: error= 4.12D-07 at cycle   6 NSaved=   6.
 NSaved= 6 IEnMin= 6 EnMin= -420.810574136431     IErMin= 6 ErrMin= 4.12D-07
 ErrMax= 4.12D-07  0.00D+00 EMaxC= 1.00D-01 BMatC= 2.46D-11 BMatP= 1.02D-10
 IDIUse=1 WtCom= 1.00D+00 WtEn= 0.00D+00
 Coeff-Com:  0.627D-03-0.116D-01 0.220D-01 0.721D-01 0.378D+00 0.539D+00
 Coeff:      0.627D-03-0.116D-01 0.220D-01 0.721D-01 0.378D+00 0.539D+00
 Gap=     0.214 Goal=   None    Shift=    0.000
 RMSDP=3.90D-08 MaxDP=1.20D-06 DE=-6.80D-11 OVMax= 1.89D-06

 Cycle   7  Pass 1  IDiag  1:
 RMSU=  1.78D-08    CP:  1.00D+00  1.09D+00  7.28D-01  6.44D-01  8.30D-01
                    CP:  5.05D-01
 E= -420.810574136454     Delta-E=       -0.000000000024 Rises=F Damp=F
 DIIS: error= 1.62D-07 at cycle   7 NSaved=   7.
 NSaved= 7 IEnMin= 7 EnMin= -420.810574136454     IErMin= 7 ErrMin= 1.62D-07
 ErrMax= 1.62D-07  0.00D+00 EMaxC= 1.00D-01 BMatC= 1.93D-12 BMatP= 2.46D-11
 IDIUse=1 WtCom= 1.00D+00 WtEn= 0.00D+00
 Coeff-Com:  0.549D-03-0.885D-02 0.357D-02 0.259D-01 0.168D+00 0.308D+00
 Coeff-Com:  0.503D+00
 Coeff:      0.549D-03-0.885D-02 0.357D-02 0.259D-01 0.168D+00 0.308D+00
 Coeff:      0.503D+00
 Gap=     0.214 Goal=   None    Shift=    0.000
 RMSDP=1.21D-08 MaxDP=2.79D-07 DE=-2.35D-11 OVMax= 7.44D-07

 Cycle   8  Pass 1  IDiag  1:
 RMSU=  7.87D-09    CP:  1.00D+00  1.09D+00  7.28D-01  6.43D-01  8.29D-01
                    CP:  5.91D-01  5.91D-01
 E= -420.810574136456     Delta-E=       -0.000000000002 Rises=F Damp=F
 DIIS: error= 5.33D-08 at cycle   8 NSaved=   8.
 NSaved= 8 IEnMin= 8 EnMin= -420.810574136456     IErMin= 8 ErrMin= 5.33D-08
 ErrMax= 5.33D-08  0.00D+00 EMaxC= 1.00D-01 BMatC= 2.16D-13 BMatP= 1.93D-12
 IDIUse=1 WtCom= 1.00D+00 WtEn= 0.00D+00
 Coeff-Com:  0.180D-03-0.285D-02-0.168D-02 0.215D-02 0.246D-01 0.775D-01
 Coeff-Com:  0.283D+00 0.618D+00
 Coeff:      0.180D-03-0.285D-02-0.168D-02 0.215D-02 0.246D-01 0.775D-01
 Coeff:      0.283D+00 0.618D+00
 Gap=     0.214 Goal=   None    Shift=    0.000
 RMSDP=3.74D-09 MaxDP=8.79D-08 DE=-1.82D-12 OVMax= 2.06D-07

 SCF Done:  E(RB3LYP) =  -420.810574136     A.U. after    8 cycles
            NFock=  8  Conv=0.37D-08     -V/T= 2.0093
 KE= 4.169273468996D+02 PE=-1.788742232972D+03 EE= 5.469159972520D+02
 Leave Link  502 at Mon Sep 21 10:07:19 2026, MaxMem=  3758096384 cpu:              31.1 elap:               4.0
 (Enter /opt/software/gaussian/16RevA.03/g16/l701.exe)
 ... and contract with generalized density number  0.
 Compute integral first derivatives.
 Leave Link  701 at Mon Sep 21 10:07:19 2026, MaxMem=  3758096384 cpu:               0.6 elap:               0.1
 (Enter /opt/software/gaussian/16RevA.03/g16/l702.exe)
 L702 exits ... SP integral derivatives will be done elsewhere.
 Leave Link  702 at Mon Sep 21 10:07:19 2026, MaxMem=  3758096384 cpu:               0.1 elap:               0.0
 (Enter /opt/software/gaussian/16RevA.03/g16/l703.exe)
 Integral derivatives from FoFJK, PRISM(SPDF).
 Compute integral first derivatives, UseDBF=F ICtDFT=           0.
 Calling FoFJK, ICntrl=      2127 FMM=F ISym2X=0 I1Cent= 0 IOpClX= 0 NMat=1 NMatS=1 NMatT=0.
 FoFJK:  IHMeth= 1 ICntrl=    2127 DoSepK=F KAlg= 0 I1Cent=           0 FoldK=F
 IRaf=         0 NMat=       1 IRICut=       1 DoRegI=T DoRafI=F ISym2E= 0 IDoP0=0 IntGTp=1.
 FoFCou: FMM=F IPFlag=           0 FMFlag=      100000 FMFlg1=         800
         NFxFlg=           0 DoJE=F BraDBF=F KetDBF=F FulRan=T
         wScrn=  0.000000 ICntrl=      2127 IOpCl=  0 I1Cent=           0 NGrid=           0
         NMat0=    1 NMatS0=      1 NMatT0=    0 NMatD0=    1 NMtDS0=    0 NMtDT0=    0
 Symmetry not used in FoFCou.
 Leave Link  703 at Mon Sep 21 10:07:21 2026, MaxMem=  3758096384 cpu:               9.4 elap:               1.2
 (Enter /opt/software/gaussian/16RevA.03/g16/l716.exe)
 Dipole        =-1.61080849D+00 8.98952588D-01 3.69129611D-01
 ***** Axes restored to original set *****
 -------------------------------------------------------------------
 Center     Atomic                   Forces (Hartrees/Bohr)
 Number     Number              X              Y              Z
 -------------------------------------------------------------------
      1        6           0.000016236    0.000011681   -0.000005122
      2        6           0.000007133   -0.000015093    0.000001021
      3        6           0.000005093   -0.000006029   -0.000000621
      4        1          -0.000001590   -0.000002053   -0.000001026
      5        6          -0.000049741    0.000019184    0.000003374
      6        6           0.000004638    0.000017813    0.000000220
      7        1           0.000000160    0.000007354    0.000000290
      8        6           0.000046313    0.000005849    0.000000049
      9        6           0.000008342   -0.000025419    0.000003363
     10        1          -0.000003789   -0.000002747    0.000002031
     11        1           0.000000307    0.000000213    0.000000198
     12        1          -0.000005080    0.000002318   -0.000000579
     13        8          -0.000018961   -0.000014044    0.000002865
     14        1           0.000009496    0.000005844    0.000005922
     15        8          -0.000018559   -0.000004871   -0.000011984
 -------------------------------------------------------------------
 Cartesian Forces:  Max     0.000049741 RMS     0.000013518
 Leave Link  716 at Mon Sep 21 10:07:21 2026, MaxMem=  3758096384 cpu:               0.2 elap:               0.0
 (Enter /opt/software/gaussian/16RevA.03/g16/l103.exe)

 GradGradGradGradGradGradGradGradGradGradGradGradGradGradGradGradGradGrad
 Berny optimization.
 Using GEDIIS/GDIIS optimizer.
 FormGI is forming the generalized inverse of G from B-inverse, IUseBI=4.
 Internal  Forces:  Max     0.000041787 RMS     0.000008910
 Search for a local minimum.
 Step number  21 out of a maximum of   77
 All quantities printed in internal units (Hartrees-Bohrs-Radians)
 RMS Force = .89097D-05 SwitMx=.10000D-02 MixMth= 2
 Mixed Optimization -- En-DIIS/RFO-DIIS
 Swapping is turned off.
 Update second derivatives using D2CorX and points   10    9   11    8   13
                                                     12   14   15   16   17
                                                     18   19   20   21
 DE= -1.79D-07 DEPred=-1.49D-07 R= 1.20D+00
 Trust test= 1.20D+00 RLast= 5.00D-03 DXMaxT set to 8.41D-02
 ITU=  0  0  1  1  0  1  0 -1 -1  0  0 -1 -1  0  1  1  1 -1  1  1
 ITU=  0
     Eigenvalues ---    0.00419   0.01167   0.01714   0.02125   0.02142
     Eigenvalues ---    0.02171   0.02176   0.02183   0.02187   0.02208
     Eigenvalues ---    0.02286   0.06410   0.14973   0.15642   0.15912
     Eigenvalues ---    0.16012   0.16126   0.17762   0.21596   0.21958
     Eigenvalues ---    0.22641   0.23050   0.26792   0.28086   0.34633
     Eigenvalues ---    0.35075   0.35110   0.35112   0.35442   0.35775
     Eigenvalues ---    0.40067   0.42336   0.42971   0.45991   0.46359
     Eigenvalues ---    0.46766   0.53301   0.54349   0.98703
 En-DIIS/RFO-DIIS/Sim-DIIS IScMMF=       -3 using points:    21   20   19   18   17
 RFO step:  Lambda=-1.54804701D-08.
 NNeg= 0 NGDIIS= 5 SimSw=  2.50D-01 Rises=F DC= -1.79D-07 SmlDif=  1.00D-05
 NRisDI= 0 DoIntr=F SqrtH=F CThrHd= 10.0 CDAdj=  3.0
 RMS Error=  0.1167301069D-03 NUsed= 5 OKEnD=F EnDIS=F
 InvSVX:  RCond= 2.82D-08 Info=           0 Equed=N FErr=  1.21D-13 BErr=  8.62D-17
 DIIS inversion failure, remove point   5.
 InvSVX:  RCond= 1.19D-07 Info=           0 Equed=N FErr=  2.58D-14 BErr=  9.39D-17
 RFO-DIIS uses    4 points instead of    5
 DidBck=F Rises=F RFO-DIIS coefs:    1.18390   -0.16296   -0.03818    0.01723    0.00000
 Iteration  1 RMS(Cart)=  0.00010514 RMS(Int)=  0.00000004
 Iteration  2 RMS(Cart)=  0.00000004 RMS(Int)=  0.00000002
 ITry= 1 IFail=0 DXMaxC= 5.04D-04 DCOld= 1.00D+10 DXMaxT= 8.41D-02 DXLimC= 3.00D+00 Rises=F
 Variable       Old X    -DE/DX   Delta X   Delta X   Delta X     New X
                                 (Linear)    (Quad)   (Total)
    R1        2.63085   0.00001   0.00000   0.00001   0.00002   2.63087
    R2        2.64879  -0.00002  -0.00001  -0.00003  -0.00004   2.64875
    R3        2.05030   0.00001   0.00000   0.00001   0.00001   2.05031
    R4        2.05290   0.00000   0.00000   0.00000   0.00000   2.05291
    R5        2.64135  -0.00001   0.00000  -0.00002  -0.00002   2.64133
    R6        2.63772  -0.00001  -0.00001   0.00000  -0.00001   2.63771
    R7        2.63561  -0.00000   0.00001  -0.00002  -0.00001   2.63560
    R8        2.05276   0.00000   0.00000  -0.00000   0.00000   2.05276
    R9        2.83451   0.00000   0.00004  -0.00001   0.00003   2.83454
   R10        2.65011   0.00002   0.00000   0.00004   0.00004   2.65015
   R11        2.05326  -0.00000  -0.00000   0.00000  -0.00000   2.05326
   R12        2.28288  -0.00000   0.00000   0.00000   0.00001   2.28289
   R13        2.57406  -0.00001  -0.00006  -0.00002  -0.00007   2.57399
   R14        2.05617  -0.00001   0.00001  -0.00001  -0.00000   2.05616
   R15        1.83454  -0.00001  -0.00001  -0.00000  -0.00001   1.83453
    A1        2.09899  -0.00001   0.00001  -0.00004  -0.00003   2.09895
    A2        2.11690   0.00001  -0.00003   0.00005   0.00003   2.11693
    A3        2.06730   0.00000   0.00002  -0.00001   0.00001   2.06730
    A4        2.09171   0.00000  -0.00002   0.00002  -0.00000   2.09171
    A5        2.09590   0.00000   0.00001   0.00001   0.00001   2.09591
    A6        2.09557  -0.00000   0.00001  -0.00002  -0.00001   2.09556
    A7        2.09384  -0.00001   0.00000  -0.00004  -0.00004   2.09380
    A8        2.09822   0.00000   0.00001  -0.00001   0.00000   2.09822
    A9        2.09110   0.00001  -0.00001   0.00005   0.00004   2.09113
   A10        2.05260  -0.00001  -0.00000  -0.00002  -0.00003   2.05258
   A11        2.08346   0.00000  -0.00002   0.00004   0.00002   2.08348
   A12        2.14680   0.00001   0.00002  -0.00002   0.00001   2.14681
   A13        2.09439   0.00001  -0.00001   0.00004   0.00003   2.09442
   A14        2.09534  -0.00000   0.00001  -0.00003  -0.00001   2.09532
   A15        2.09342  -0.00001   0.00000  -0.00001  -0.00001   2.09341
   A16        2.15420  -0.00004  -0.00005  -0.00009  -0.00014   2.15407
   A17        2.03734   0.00003   0.00004   0.00006   0.00010   2.03744
   A18        2.09164   0.00001   0.00001   0.00003   0.00004   2.09168
   A19        2.09952  -0.00000   0.00001  -0.00000   0.00001   2.09953
   A20        2.07502   0.00000  -0.00005   0.00005  -0.00000   2.07502
   A21        2.10775  -0.00000   0.00004  -0.00005  -0.00001   2.10774
   A22        1.92006   0.00002   0.00006   0.00004   0.00009   1.92015
    D1       -3.13011  -0.00000   0.00000   0.00000   0.00000  -3.13010
    D2        0.01563  -0.00000   0.00001  -0.00000   0.00000   0.01563
    D3        0.00979   0.00000   0.00000   0.00003   0.00003   0.00983
    D4       -3.12766   0.00000   0.00001   0.00003   0.00004  -3.12762
    D5       -3.14086   0.00000  -0.00003   0.00002  -0.00000  -3.14086
    D6       -0.02540   0.00000  -0.00001   0.00002   0.00001  -0.02538
    D7        0.00238  -0.00000  -0.00003  -0.00001  -0.00003   0.00234
    D8        3.11784  -0.00000  -0.00001  -0.00001  -0.00002   3.11782
    D9        0.00374  -0.00000   0.00000  -0.00001  -0.00001   0.00372
   D10        3.13679  -0.00000   0.00001  -0.00001  -0.00001   3.13678
   D11       -3.13371  -0.00000   0.00001  -0.00002  -0.00001  -3.13372
   D12       -0.00065  -0.00000   0.00001  -0.00002  -0.00000  -0.00066
   D13       -0.01309   0.00000  -0.00001   0.00001   0.00000  -0.01309
   D14        3.13703   0.00000  -0.00002   0.00001  -0.00000   3.13703
   D15        3.12020  -0.00000   0.00000  -0.00002  -0.00002   3.12018
   D16       -0.01287  -0.00000  -0.00001  -0.00002  -0.00002  -0.01289
   D17        0.00313   0.00000   0.00001   0.00001   0.00002   0.00315
   D18        3.09961   0.00000  -0.00000   0.00001   0.00000   3.09961
   D19       -3.13019   0.00000  -0.00000   0.00004   0.00003  -3.13016
   D20       -0.03371   0.00000  -0.00002   0.00004   0.00002  -0.03369
   D21        0.36143  -0.00000   0.00015  -0.00002   0.00013   0.36157
   D22       -2.77941   0.00001   0.00024   0.00004   0.00029  -2.77912
   D23       -2.75301  -0.00000   0.00013  -0.00002   0.00011  -2.75289
   D24        0.38933   0.00001   0.00022   0.00005   0.00027   0.38960
   D25        0.01602  -0.00000  -0.00000  -0.00002  -0.00002   0.01599
   D26       -3.07960  -0.00000   0.00002  -0.00003  -0.00001  -3.07962
   D27        3.13000  -0.00000   0.00002  -0.00003  -0.00001   3.13000
   D28        0.03438  -0.00000   0.00004  -0.00003   0.00001   0.03439
   D29        0.18011  -0.00001  -0.00063  -0.00002  -0.00065   0.17947
   D30       -2.96076  -0.00000  -0.00054   0.00004  -0.00050  -2.96126
         Item               Value     Threshold  Converged?
 Maximum Force            0.000042     0.000450     YES
 RMS     Force            0.000009     0.000300     YES
 Maximum Displacement     0.000504     0.001800     YES
 RMS     Displacement     0.000105     0.001200     YES
 Predicted change in Energy=-1.250562D-08
 Optimization completed.
    -- Stationary point found.
                           ----------------------------
                           !   Optimized Parameters   !
                           ! (Angstroms and Degrees)  !
 --------------------------                            --------------------------
 ! Name  Definition              Value          Derivative Info.                !
 --------------------------------------------------------------------------------
 ! R1    R(1,2)                  1.3922         -DE/DX =    0.0                 !
 ! R2    R(1,5)                  1.4017         -DE/DX =    0.0                 !
 ! R3    R(1,7)                  1.085          -DE/DX =    0.0                 !
 ! R4    R(2,4)                  1.0863         -DE/DX =    0.0                 !
 ! R5    R(2,6)                  1.3977         -DE/DX =    0.0                 !
 ! R6    R(3,6)                  1.3958         -DE/DX =    0.0                 !
 ! R7    R(3,9)                  1.3947         -DE/DX =    0.0                 !
 ! R8    R(3,10)                 1.0863         -DE/DX =    0.0                 !
 ! R9    R(5,8)                  1.5            -DE/DX =    0.0                 !
 ! R10   R(5,9)                  1.4024         -DE/DX =    0.0                 !
 ! R11   R(6,11)                 1.0865         -DE/DX =    0.0                 !
 ! R12   R(8,13)                 1.208          -DE/DX =    0.0                 !
 ! R13   R(8,15)                 1.3621         -DE/DX =    0.0                 !
 ! R14   R(9,12)                 1.0881         -DE/DX =    0.0                 !
 ! R15   R(14,15)                0.9708         -DE/DX =    0.0                 !
 ! A1    A(2,1,5)              120.263          -DE/DX =    0.0                 !
 ! A2    A(2,1,7)              121.2896         -DE/DX =    0.0                 !
 ! A3    A(5,1,7)              118.4473         -DE/DX =    0.0                 !
 ! A4    A(1,2,4)              119.8462         -DE/DX =    0.0                 !
 ! A5    A(1,2,6)              120.0861         -DE/DX =    0.0                 !
 ! A6    A(4,2,6)              120.0673         -DE/DX =    0.0                 !
 ! A7    A(6,3,9)              119.968          -DE/DX =    0.0                 !
 ! A8    A(6,3,10)             120.2192         -DE/DX =    0.0                 !
 ! A9    A(9,3,10)             119.8111         -DE/DX =    0.0                 !
 ! A10   A(1,5,8)              117.6055         -DE/DX =    0.0                 !
 ! A11   A(1,5,9)              119.3737         -DE/DX =    0.0                 !
 ! A12   A(8,5,9)              123.0029         -DE/DX =    0.0                 !
 ! A13   A(2,6,3)              119.9999         -DE/DX =    0.0                 !
 ! A14   A(2,6,11)             120.054          -DE/DX =    0.0                 !
 ! A15   A(3,6,11)             119.9444         -DE/DX =    0.0                 !
 ! A16   A(5,8,13)             123.4267         -DE/DX =    0.0                 !
 ! A17   A(5,8,15)             116.7312         -DE/DX =    0.0                 !
 ! A18   A(13,8,15)            119.8421         -DE/DX =    0.0                 !
 ! A19   A(3,9,5)              120.2937         -DE/DX =    0.0                 !
 ! A20   A(3,9,12)             118.8897         -DE/DX =    0.0                 !
 ! A21   A(5,9,12)             120.7653         -DE/DX =    0.0                 !
 ! A22   A(8,15,14)            110.0114         -DE/DX =    0.0                 !
 ! D1    D(5,1,2,4)           -179.3419         -DE/DX =    0.0                 !
 ! D2    D(5,1,2,6)              0.8953         -DE/DX =    0.0                 !
 ! D3    D(7,1,2,4)              0.5612         -DE/DX =    0.0                 !
 ! D4    D(7,1,2,6)           -179.2017         -DE/DX =    0.0                 !
 ! D5    D(2,1,5,8)           -179.9581         -DE/DX =    0.0                 !
 ! D6    D(2,1,5,9)             -1.4551         -DE/DX =    0.0                 !
 ! D7    D(7,1,5,8)              0.1362         -DE/DX =    0.0                 !
 ! D8    D(7,1,5,9)            178.6392         -DE/DX =    0.0                 !
 ! D9    D(1,2,6,3)              0.2141         -DE/DX =    0.0                 !
 ! D10   D(1,2,6,11)           179.7248         -DE/DX =    0.0                 !
 ! D11   D(4,2,6,3)           -179.5483         -DE/DX =    0.0                 !
 ! D12   D(4,2,6,11)            -0.0375         -DE/DX =    0.0                 !
 ! D13   D(9,3,6,2)             -0.7501         -DE/DX =    0.0                 !
 ! D14   D(9,3,6,11)           179.7386         -DE/DX =    0.0                 !
 ! D15   D(10,3,6,2)           178.7741         -DE/DX =    0.0                 !
 ! D16   D(10,3,6,11)           -0.7372         -DE/DX =    0.0                 !
 ! D17   D(6,3,9,5)              0.1794         -DE/DX =    0.0                 !
 ! D18   D(6,3,9,12)           177.5945         -DE/DX =    0.0                 !
 ! D19   D(10,3,9,5)          -179.3467         -DE/DX =    0.0                 !
 ! D20   D(10,3,9,12)           -1.9316         -DE/DX =    0.0                 !
 ! D21   D(1,5,8,13)            20.7087         -DE/DX =    0.0                 !
 ! D22   D(1,5,8,15)          -159.2485         -DE/DX =    0.0                 !
 ! D23   D(9,5,8,13)          -157.7357         -DE/DX =    0.0                 !
 ! D24   D(9,5,8,15)            22.3071         -DE/DX =    0.0                 !
 ! D25   D(1,5,9,3)              0.9178         -DE/DX =    0.0                 !
 ! D26   D(1,5,9,12)          -176.4483         -DE/DX =    0.0                 !
 ! D27   D(8,5,9,3)            179.3359         -DE/DX =    0.0                 !
 ! D28   D(8,5,9,12)             1.9698         -DE/DX =    0.0                 !
 ! D29   D(5,8,15,14)           10.3198         -DE/DX =    0.0                 !
 ! D30   D(13,8,15,14)        -169.639          -DE/DX =    0.0                 !
 --------------------------------------------------------------------------------
 Lowest energy point so far.  Saving SCF results.
 Largest change from initial coordinates is atom   14       0.278 Angstoms.
 GradGradGradGradGradGradGradGradGradGradGradGradGradGradGradGradGradGrad

 Leave Link  103 at Mon Sep 21 10:07:21 2026, MaxMem=  3758096384 cpu:               0.8 elap:               0.1
 (Enter /opt/software/gaussian/16RevA.03/g16/l202.exe)
                          Input orientation:                          
 ---------------------------------------------------------------------
 Center     Atomic      Atomic             Coordinates (Angstroms)
 Number     Number       Type             X           Y           Z
 ---------------------------------------------------------------------
      1          6           0       -0.843984    2.010274   -0.009140
      2          6           0       -1.509725    0.787930    0.019997
      3          6           0        0.612675   -0.371930    0.075901
      4          1           0       -2.595791    0.763566    0.015232
      5          6           0        0.557064    2.051570   -0.017167
      6          6           0       -0.782662   -0.405149    0.060303
      7          1           0       -1.388799    2.948353   -0.027677
      8          6           0        1.212498    3.400399   -0.047942
      9          6           0        1.280916    0.851596    0.035440
     10          1           0        1.181026   -1.296228    0.127278
     11          1           0       -1.302807   -1.358707    0.087545
     12          1           0        2.367681    0.859020    0.088339
     13          8           0        0.656849    4.418176    0.290829
     14          1           0        2.751294    2.590056   -0.871560
     15          8           0        2.501275    3.445483   -0.486609
 ---------------------------------------------------------------------
                    Distance matrix (angstroms):
                    1          2          3          4          5
     1  C    0.000000
     2  C    1.392188   0.000000
     3  C    2.793561   2.419294   0.000000
     4  H    2.150280   1.086349   3.404010   0.000000
     5  C    1.401679   2.422764   2.425924   3.405951   0.000000
     6  C    2.417200   1.397742   1.395819   2.157630   2.799346
     7  H    1.084970   2.164330   3.878261   2.496391   2.142595
     8  C    2.482553   3.773607   3.821727   4.632488   1.499961
     9  C    2.420686   2.791410   1.394703   3.877759   1.402379
    10  H    3.879720   3.405197   1.086273   4.303447   3.408510
    11  H    3.401456   2.157644   2.154748   2.486178   3.885882
    12  H    3.413162   3.878660   2.143697   4.964928   2.170631
    13  O    2.853151   4.236281   4.795129   4.900183   2.388649
    14  H    3.742451   4.711562   3.774220   5.719597   2.415492
    15  O    3.671315   4.838115   4.296029   5.781401   2.437893
                    6          7          8          9         10
     6  C    0.000000
     7  H    3.408977   0.000000
     8  C    4.298207   2.640360   0.000000
     9  C    2.416273   3.395254   2.551085   0.000000
    10  H    2.157447   4.964321   4.700000   2.152105   0.000000
    11  H    1.086539   4.309460   5.384627   3.400556   2.484937
    12  H    3.394638   4.299990   2.794929   1.088077   2.460642
    13  O    5.038829   2.538995   1.208048   3.629763   5.740725
    14  H    4.725301   4.240387   1.924292   2.450899   4.308900
    15  O    5.090257   3.948472   1.362134   2.913771   4.960215
                   11         12         13         14         15
    11  H    0.000000
    12  H    4.288449   0.000000
    13  O    6.103602   3.954180   0.000000
    14  H    5.740066   2.016197   3.013283   0.000000
    15  O    6.154749   2.652961   2.225410   0.970799   0.000000
 Stoichiometry    C7H6O2
 Framework group  C1[X(C7H6O2)]
 Deg. of freedom    39
 Full point group                 C1      NOp   1
 RotChk:  IX=0 Diff= 6.72D-16
 Largest Abelian subgroup         C1      NOp   1
 Largest concise Abelian subgroup C1      NOp   1
                         Standard orientation:                         
 ---------------------------------------------------------------------
 Center     Atomic      Atomic             Coordinates (Angstroms)
 Number     Number       Type             X           Y           Z
 ---------------------------------------------------------------------
      1          6           0       -0.490506   -1.215413    0.117477
      2          6           0       -1.882221   -1.188495    0.141771
      3          6           0       -1.845190    1.214544   -0.135751
      4          1           0       -2.439009   -2.114569    0.253703
      5          6           0        0.236903   -0.024349   -0.012714
      6          6           0       -2.561817    0.026570    0.017464
      7          1           0        0.056558   -2.148771    0.199469
      8          6           0        1.733502   -0.122620   -0.033058
      9          6           0       -0.450762    1.190232   -0.149013
     10          1           0       -2.369984    2.158432   -0.252607
     11          1           0       -3.648076    0.046469    0.032006
     12          1           0        0.089724    2.120911   -0.309084
     13          8           0        2.330155   -1.137307   -0.304710
     14          1           0        1.821550    1.683178    0.625911
     15          8           0        2.426067    1.008749    0.276403
 ---------------------------------------------------------------------
 Rotational constants (GHZ):           3.8283933           1.2103173           0.9341013
 Leave Link  202 at Mon Sep 21 10:07:21 2026, MaxMem=  3758096384 cpu:               0.3 elap:               0.1
 (Enter /opt/software/gaussian/16RevA.03/g16/l601.exe)
 Copying SCF densities to generalized density rwf, IOpCl= 0 IROHF=0.

 **********************************************************************

            Population analysis using the SCF density.

 **********************************************************************

 Orbital symmetries:
       Occupied  (A) (A) (A) (A) (A) (A) (A) (A) (A) (A) (A) (A)
                 (A) (A) (A) (A) (A) (A) (A) (A) (A) (A) (A) (A)
                 (A) (A) (A) (A) (A) (A) (A) (A)
       Virtual   (A) (A) (A) (A) (A) (A) (A) (A) (A) (A) (A) (A)
                 (A) (A) (A) (A) (A) (A) (A) (A) (A) (A) (A) (A)
                 (A) (A) (A) (A) (A) (A) (A) (A) (A) (A) (A) (A)
                 (A) (A) (A) (A) (A) (A) (A) (A) (A) (A) (A) (A)
                 (A) (A) (A) (A) (A) (A) (A) (A) (A) (A) (A) (A)
                 (A) (A) (A) (A) (A) (A) (A) (A) (A) (A) (A) (A)
                 (A) (A) (A) (A) (A) (A) (A) (A) (A) (A) (A) (A)
                 (A) (A) (A) (A) (A) (A) (A) (A) (A) (A) (A) (A)
                 (A) (A) (A) (A) (A) (A) (A) (A) (A) (A) (A) (A)
                 (A) (A) (A) (A) (A) (A) (A)
 The electronic state is 1-A.
 Alpha  occ. eigenvalues --  -19.19526 -19.13295 -10.32082 -10.21946 -10.21890
 Alpha  occ. eigenvalues --  -10.21303 -10.21221 -10.20927 -10.20863  -1.09826
 Alpha  occ. eigenvalues --   -1.01649  -0.87466  -0.77597  -0.76583  -0.65304
 Alpha  occ. eigenvalues --   -0.62529  -0.60826  -0.56210  -0.50493  -0.47471
 Alpha  occ. eigenvalues --   -0.46261  -0.44740  -0.44060  -0.43334  -0.39586
 Alpha  occ. eigenvalues --   -0.38064  -0.36729  -0.36308  -0.31630  -0.27821
 Alpha  occ. eigenvalues --   -0.27240  -0.26510
 Alpha virt. eigenvalues --   -0.05104  -0.02206   0.04682   0.05930   0.09140
 Alpha virt. eigenvalues --    0.13165   0.14555   0.15380   0.17600   0.18340
 Alpha virt. eigenvalues --    0.22529   0.26699   0.28283   0.29215   0.30480
 Alpha virt. eigenvalues --    0.35947   0.38767   0.46917   0.50551   0.52118
 Alpha virt. eigenvalues --    0.53410   0.54235   0.55528   0.57104   0.57678
 Alpha virt. eigenvalues --    0.58710   0.58946   0.60136   0.60654   0.62601
 Alpha virt. eigenvalues --    0.65092   0.67591   0.69562   0.72621   0.74955
 Alpha virt. eigenvalues --    0.78012   0.80633   0.82037   0.82227   0.83886
 Alpha virt. eigenvalues --    0.86202   0.88913   0.92289   0.93966   0.95302
 Alpha virt. eigenvalues --    0.97348   0.98979   1.02378   1.06202   1.06712
 Alpha virt. eigenvalues --    1.10562   1.12704   1.16220   1.18581   1.21426
 Alpha virt. eigenvalues --    1.24302   1.31139   1.35825   1.39055   1.40891
 Alpha virt. eigenvalues --    1.42716   1.45612   1.46513   1.47432   1.49418
 Alpha virt. eigenvalues --    1.50182   1.64941   1.70158   1.75786   1.76234
 Alpha virt. eigenvalues --    1.77615   1.83681   1.84719   1.86118   1.88725
 Alpha virt. eigenvalues --    1.90760   1.92440   1.95999   2.00157   2.03430
 Alpha virt. eigenvalues --    2.04961   2.12164   2.12918   2.13107   2.15105
 Alpha virt. eigenvalues --    2.26062   2.26458   2.28735   2.29252   2.41163
 Alpha virt. eigenvalues --    2.44892   2.49991   2.57064   2.59099   2.61377
 Alpha virt. eigenvalues --    2.63148   2.68705   2.70556   2.72143   2.74426
 Alpha virt. eigenvalues --    2.80902   2.86685   2.97574   3.06764   3.14573
 Alpha virt. eigenvalues --    3.40498   3.85123   4.05243   4.08103   4.09564
 Alpha virt. eigenvalues --    4.19557   4.30480   4.33022   4.44070   4.69423
          Condensed to atoms (all electrons):
               1          2          3          4          5          6
     1  C    4.960032   0.498835  -0.037053  -0.038908   0.511141  -0.032227
     2  C    0.498835   4.898689  -0.027661   0.361399  -0.022991   0.538114
     3  C   -0.037053  -0.027661   4.854603   0.004562  -0.024412   0.552252
     4  H   -0.038908   0.361399   0.004562   0.576890   0.003744  -0.042996
     5  C    0.511141  -0.022991  -0.024412   0.003744   5.042380  -0.035193
     6  C   -0.032227   0.538114   0.552252  -0.042996  -0.035193   4.847070
     7  H    0.357974  -0.040931   0.000382  -0.004846  -0.043837   0.004232
     8  C   -0.026346   0.005665   0.003723  -0.000120   0.278524   0.000197
     9  C   -0.061177  -0.041248   0.517765   0.000725   0.481302  -0.036514
    10  H    0.000765   0.004442   0.359799  -0.000171   0.003704  -0.041065
    11  H    0.004447  -0.042191  -0.042343  -0.005374   0.000620   0.360788
    12  H    0.005443   0.000460  -0.030907   0.000017  -0.054152   0.004439
    13  O    0.003122   0.000781  -0.000049   0.000001  -0.097947  -0.000014
    14  H   -0.000582  -0.000045   0.000117   0.000000   0.001637   0.000006
    15  O    0.004540  -0.000048   0.000501   0.000000  -0.100047  -0.000013
               7          8          9         10         11         12
     1  C    0.357974  -0.026346  -0.061177   0.000765   0.004447   0.005443
     2  C   -0.040931   0.005665  -0.041248   0.004442  -0.042191   0.000460
     3  C    0.000382   0.003723   0.517765   0.359799  -0.042343  -0.030907
     4  H   -0.004846  -0.000120   0.000725  -0.000171  -0.005374   0.000017
     5  C   -0.043837   0.278524   0.481302   0.003704   0.000620  -0.054152
     6  C    0.004232   0.000197  -0.036514  -0.041065   0.360788   0.004439
     7  H    0.545720  -0.007920   0.005943   0.000016  -0.000152  -0.000148
     8  C   -0.007920   4.398981  -0.038706  -0.000103   0.000006  -0.006550
     9  C    0.005943  -0.038706   5.047578  -0.039690   0.005122   0.344014
    10  H    0.000016  -0.000103  -0.039690   0.580736  -0.005391  -0.005434
    11  H   -0.000152   0.000006   0.005122  -0.005391   0.581427  -0.000182
    12  H   -0.000148  -0.006550   0.344014  -0.005434  -0.000182   0.598080
    13  O    0.012749   0.594851   0.002616   0.000000  -0.000000  -0.000025
    14  H   -0.000059  -0.015942   0.009391  -0.000006  -0.000000   0.005503
    15  O    0.000297   0.266538   0.000232   0.000003   0.000000   0.004882
              13         14         15
     1  C    0.003122  -0.000582   0.004540
     2  C    0.000781  -0.000045  -0.000048
     3  C   -0.000049   0.000117   0.000501
     4  H    0.000001   0.000000   0.000000
     5  C   -0.097947   0.001637  -0.100047
     6  C   -0.000014   0.000006  -0.000013
     7  H    0.012749  -0.000059   0.000297
     8  C    0.594851  -0.015942   0.266538
     9  C    0.002616   0.009391   0.000232
    10  H    0.000000  -0.000006   0.000003
    11  H   -0.000000  -0.000000   0.000000
    12  H   -0.000025   0.005503   0.004882
    13  O    8.002014   0.004657  -0.078597
    14  H    0.004657   0.366550   0.218260
    15  O   -0.078597   0.218260   8.257378
 Mulliken charges:
               1
     1  C   -0.150007
     2  C   -0.133271
     3  C   -0.131279
     4  H    0.145077
     5  C    0.055527
     6  C   -0.119076
     7  H    0.170580
     8  C    0.547202
     9  C   -0.197353
    10  H    0.142394
    11  H    0.143222
    12  H    0.134559
    13  O   -0.444161
    14  H    0.410513
    15  O   -0.573927
 Sum of Mulliken charges =  -0.00000
 Mulliken charges with hydrogens summed into heavy atoms:
               1
     1  C    0.020573
     2  C    0.011806
     3  C    0.011115
     5  C    0.055527
     6  C    0.024146
     8  C    0.547202
     9  C   -0.062794
    13  O   -0.444161
    15  O   -0.163414
 Electronic spatial extent (au):  <R**2>=           1177.8038
 Charge=              0.0000 electrons
 Dipole moment (field-independent basis, Debye):
    X=             -4.0943    Y=              2.2849    Z=              0.9382  Tot=              4.7816
 Quadrupole moment (field-independent basis, Debye-Ang):
   XX=            -56.7428   YY=            -45.2752   ZZ=            -52.5335
   XY=              4.6389   XZ=              1.6807   YZ=             -0.4679
 Traceless Quadrupole moment (field-independent basis, Debye-Ang):
   XX=             -5.2256   YY=              6.2420   ZZ=             -1.0163
   XY=              4.6389   XZ=              1.6807   YZ=             -0.4679
 Octapole moment (field-independent basis, Debye-Ang**2):
  XXX=            -35.2834  YYY=              8.8839  ZZZ=              0.7135  XYY=             -1.5267
  XXY=              7.3325  XXZ=              2.9798  XZZ=             11.4648  YZZ=              1.2305
  YYZ=              3.7409  XYZ=              1.3559
 Hexadecapole moment (field-independent basis, Debye-Ang**3):
 XXXX=          -1077.7056 YYYY=           -344.9512 ZZZZ=            -60.4585 XXXY=             12.1335
 XXXZ=              3.3952 YYYX=             19.5529 YYYZ=              1.8646 ZZZX=              1.2986
 ZZZY=              4.5692 XXYY=           -233.9948 XXZZ=           -191.4165 YYZZ=            -75.9175
 XXYZ=             -3.5138 YYXZ=              7.6077 ZZXY=              2.5860
 N-N= 4.040883146835D+02 E-N=-1.788742232218D+03  KE= 4.169273468996D+02
 No NMR shielding tensors so no spin-rotation constants.
 Leave Link  601 at Mon Sep 21 10:07:21 2026, MaxMem=  3758096384 cpu:               0.9 elap:               0.1
 (Enter /opt/software/gaussian/16RevA.03/g16/l9999.exe)
 1\1\GINC-CPU01\FOpt\RB3LYP\6-31G(d)\C7H6O2\QC26\21-Sep-2026\0\\#p B3LY
 P/6-31G(d) Opt\\C7H6O2 | Equilibrium Geometry | B3LYP/6-31G(d)\\0,1\C,
 -0.8439835273,2.0102741812,-0.0091403623\C,-1.5097253612,0.7879298582,
 0.0199965216\C,0.6126749738,-0.3719301464,0.0759005757\H,-2.5957911561
 ,0.763566024,0.0152323484\C,0.5570641919,2.0515696407,-0.017167459\C,-
 0.7826617903,-0.4051493481,0.06030343\H,-1.3887988036,2.948353396,-0.0
 276774185\C,1.212497776,3.4003994007,-0.0479416469\C,1.2809155572,0.85
 15955431,0.0354397129\H,1.1810262494,-1.2962278982,0.127277574\H,-1.30
 28074618,-1.3587072388,0.0875451528\H,2.3676807327,0.8590200705,0.0883
 387716\O,0.6568485734,4.4181758935,0.2908287715\H,2.7512943122,2.59005
 60546,-0.8715598131\O,2.5012747337,3.4454825689,-0.4866091586\\Version
 =ES64L-G16RevA.03\State=1-A\HF=-420.8105741\RMSD=3.735e-09\RMSF=1.352e
 -05\Dipole=-0.054343,-1.840709,-0.3845952\Quadrupole=5.3911694,-4.7370
 16,-0.6541534,-2.0227443,-0.9494495,-1.1041826\PG=C01 [X(C7H6O2)]\\@


 HOW IS IT THAT THE SKY FEEDS THE STARS?

                           -- LUCRETIUS
 Job cpu time:       0 days  0 hours 17 minutes 53.3 seconds.
 Elapsed time:       0 days  0 hours  2 minutes 25.5 seconds.
 File lengths (MBytes):  RWF=     29 Int=      0 D2E=      0 Chk=      4 Scr=      2
 Normal termination of Gaussian 16 at Mon Sep 21 10:07:21 2026.
